! Mini-Circuits								
! S2P DATA File Format								
! Type: BAND PASS FILTER								
! Model: ZABP-587-S+								
! All S Parameters are in MAG PHASE format								
! TEST CONDITIONS: INPUT POWER = 0 dBm @ Temperature = +85deg C														
!								
# MHz S DB R 50							
!								
!FREQ   MAG(S11)PHS(S11) MAG(S21)PHS(S21)MAG(S12)PHS(S12)MAG(S22)PHS(S22)
    .5000     -1.034022E-003 -2.058681E-001 -1.035026E+002 -1.559946E+002 -1.054320E+002  3.450708E+001  3.384092E-003 -3.763710E-001
   1.0000     -1.471026E-003 -3.809706E-001 -9.712550E+001 -1.187353E+002 -9.870653E+001 -1.426055E+002 -1.826792E-003 -7.742274E-001
   1.5000     -1.453797E-004 -5.587202E-001 -9.830944E+001  5.448228E+001 -9.944850E+001 -1.359254E+002 -2.720875E-003 -1.150267E+000
   2.0000     -1.925840E-003 -7.521061E-001 -9.881243E+001  4.159547E+001 -1.054771E+002 -1.174521E+002 -2.978373E-003 -1.527467E+000
   2.5000      8.431249E-004 -9.400647E-001 -1.004515E+002 -6.567503E+001 -1.107791E+002  1.107078E+002 -1.330646E-003 -1.887208E+000
   3.0000      6.037631E-006 -1.132677E+000 -9.745925E+001  1.161840E+002 -1.024931E+002  8.698863E+001  2.780888E-005 -2.249956E+000
   3.5000     -6.405634E-004 -1.312571E+000 -1.016977E+002  4.169791E+001 -1.099292E+002  6.500977E+001 -1.894759E-003 -2.624588E+000
   4.0000     -2.171348E-004 -1.492316E+000 -1.031624E+002  1.362950E+002 -9.838138E+001  1.113145E+002 -1.591774E-003 -2.998920E+000
   4.5000     -1.181481E-003 -1.680601E+000 -1.037860E+002  1.913962E+001 -1.067878E+002 -8.240036E+000 -1.349100E-003 -3.366707E+000
   5.0000     -1.237090E-003 -1.865985E+000 -1.021289E+002  8.578586E+001 -1.015563E+002  1.400421E+002 -5.452150E-004 -3.729915E+000
  10.0000     -2.990217E-003 -3.750367E+000 -1.015304E+002  7.057159E+001 -9.612120E+001  1.315500E+002 -3.776067E-003 -7.478748E+000
  15.0000     -2.958815E-003 -5.607125E+000 -9.531634E+001  6.723721E+001 -9.078051E+001  9.725700E+001 -4.832796E-003 -1.120201E+001
  20.0000     -3.224428E-003 -7.465525E+000 -9.106482E+001  6.783666E+001 -9.208715E+001  9.708121E+001 -9.312242E-003 -1.494334E+001
  25.0000     -3.432554E-003 -9.333626E+000 -9.409320E+001  7.618378E+001 -8.926918E+001  7.380350E+001 -1.110543E-002 -1.867239E+001
  30.0000     -5.010436E-003 -1.121820E+001 -9.071994E+001  8.165451E+001 -8.822945E+001  6.507993E+001 -1.327308E-002 -2.245140E+001
  35.0000     -6.311911E-003 -1.308740E+001 -8.760888E+001  7.789381E+001 -8.727446E+001  7.165594E+001 -1.693695E-002 -2.624004E+001
  40.0000     -6.007288E-003 -1.497225E+001 -8.613342E+001  5.084708E+001 -8.838732E+001  5.614138E+001 -2.013467E-002 -3.003509E+001
  45.0000     -7.890655E-003 -1.685695E+001 -8.754841E+001  6.662349E+001 -8.606258E+001  2.849839E+001 -2.487153E-002 -3.388217E+001
  50.0000     -9.434243E-003 -1.873875E+001 -8.571920E+001  6.466816E+001 -8.716157E+001  5.195955E+001 -2.741346E-002 -3.773543E+001
  55.0000     -1.171640E-002 -2.063413E+001 -8.428603E+001  5.991883E+001 -8.623748E+001  8.158591E+001 -3.533723E-002 -4.162565E+001
  60.0000     -1.091512E-002 -2.253232E+001 -8.172942E+001  4.548195E+001 -8.204727E+001  5.306438E+001 -3.979770E-002 -4.555547E+001
  65.0000     -1.386853E-002 -2.443524E+001 -8.076521E+001  5.773564E+001 -8.284631E+001  5.890505E+001 -4.394555E-002 -4.953072E+001
  70.0000     -1.305555E-002 -2.634872E+001 -7.945364E+001  4.843630E+001 -8.283301E+001  4.838830E+001 -4.842077E-002 -5.352900E+001
  75.0000     -1.458604E-002 -2.826620E+001 -8.036672E+001  5.196357E+001 -8.046706E+001  5.697264E+001 -5.531926E-002 -5.758277E+001
  80.0000     -1.751791E-002 -3.018755E+001 -7.928704E+001  4.714483E+001 -7.957472E+001  4.214612E+001 -6.286023E-002 -6.166191E+001
  85.0000     -1.794777E-002 -3.211990E+001 -7.837038E+001  4.352533E+001 -7.946070E+001  3.621991E+001 -6.785095E-002 -6.579067E+001
  90.0000     -1.884648E-002 -3.406283E+001 -7.769830E+001  3.435209E+001 -7.771085E+001  3.387472E+001 -7.514123E-002 -6.996462E+001
  95.0000     -2.100860E-002 -3.600134E+001 -7.659830E+001  3.742211E+001 -7.652789E+001  3.399965E+001 -8.389543E-002 -7.419160E+001
 100.0000     -2.244300E-002 -3.795400E+001 -7.589311E+001  2.862312E+001 -7.652073E+001  3.104025E+001 -8.985797E-002 -7.844550E+001
 105.0000     -2.437871E-002 -3.991766E+001 -7.511755E+001  2.329491E+001 -7.513754E+001  2.897979E+001 -1.004861E-001 -8.275658E+001
 110.0000     -2.788545E-002 -4.190827E+001 -7.406536E+001  2.591116E+001 -7.425285E+001  2.239249E+001 -1.108414E-001 -8.712112E+001
 115.0000     -2.916775E-002 -4.388977E+001 -7.343021E+001  2.065921E+001 -7.334142E+001  2.162411E+001 -1.204651E-001 -9.153603E+001
 120.0000     -3.143569E-002 -4.587339E+001 -7.174691E+001  1.926406E+001 -7.223988E+001  1.831912E+001 -1.323272E-001 -9.599566E+001
 125.0000     -3.345996E-002 -4.789153E+001 -7.116945E+001  1.841358E+001 -7.144269E+001  1.845345E+001 -1.426597E-001 -1.004959E+002
 130.0000     -3.603753E-002 -4.990207E+001 -6.997993E+001  1.156595E+001 -7.042695E+001  1.306358E+001 -1.553645E-001 -1.050363E+002
 135.0000     -3.938268E-002 -5.192553E+001 -6.911860E+001  7.444800E+000 -6.945313E+001  9.024144E+000 -1.669685E-001 -1.096253E+002
 140.0000     -4.134902E-002 -5.394765E+001 -6.816979E+001  4.210585E+000 -6.824360E+001  4.188960E+000 -1.791997E-001 -1.142607E+002
 145.0000     -4.370577E-002 -5.600053E+001 -6.727483E+001  8.438188E-001 -6.707327E+001  1.806071E+000 -1.922433E-001 -1.189170E+002
 150.0000     -4.471441E-002 -5.806606E+001 -6.606970E+001 -1.163845E+000 -6.608221E+001 -1.684156E+000 -2.057615E-001 -1.236349E+002
 155.0000     -4.793965E-002 -6.011389E+001 -6.509085E+001 -5.155962E+000 -6.523138E+001 -5.329182E+000 -2.190983E-001 -1.283571E+002
 160.0000     -5.114884E-002 -6.218420E+001 -6.389798E+001 -8.933203E+000 -6.387395E+001 -8.797997E+000 -2.339400E-001 -1.331196E+002
 165.0000     -5.436327E-002 -6.427955E+001 -6.289335E+001 -1.206966E+001 -6.296780E+001 -1.238634E+001 -2.469505E-001 -1.379144E+002
 170.0000     -5.626500E-002 -6.638338E+001 -6.189164E+001 -1.575513E+001 -6.193016E+001 -1.547895E+001 -2.605032E-001 -1.427068E+002
 175.0000     -6.011067E-002 -6.848356E+001 -6.085628E+001 -1.988428E+001 -6.087126E+001 -1.855797E+001 -2.735080E-001 -1.475515E+002
 180.0000     -6.368094E-002 -7.060526E+001 -5.981157E+001 -2.212820E+001 -5.977964E+001 -2.260819E+001 -2.875675E-001 -1.523999E+002
 185.0000     -6.751809E-002 -7.274979E+001 -5.880521E+001 -2.626857E+001 -5.892118E+001 -2.657158E+001 -3.007398E-001 -1.572736E+002
 190.0000     -7.264059E-002 -7.489413E+001 -5.790673E+001 -3.008090E+001 -5.786537E+001 -3.045753E+001 -3.134111E-001 -1.621444E+002
 195.0000     -7.436318E-002 -7.704632E+001 -5.685365E+001 -3.357773E+001 -5.683720E+001 -3.361198E+001 -3.272797E-001 -1.670401E+002
 200.0000     -7.887093E-002 -7.922282E+001 -5.586385E+001 -3.685574E+001 -5.589733E+001 -3.758209E+001 -3.378433E-001 -1.719273E+002
 205.0000     -8.308286E-002 -8.141650E+001 -5.498587E+001 -4.052504E+001 -5.492300E+001 -4.114889E+001 -3.519513E-001 -1.768147E+002
 210.0000     -8.782742E-002 -8.362278E+001 -5.402799E+001 -4.393075E+001 -5.399418E+001 -4.433596E+001 -3.618671E-001  1.782988E+002
 215.0000     -9.211809E-002 -8.584432E+001 -5.310435E+001 -4.769413E+001 -5.304119E+001 -4.787095E+001 -3.738945E-001  1.734039E+002
 220.0000     -9.653902E-002 -8.808755E+001 -5.218445E+001 -5.124365E+001 -5.217279E+001 -5.113620E+001 -3.830903E-001  1.685258E+002
 225.0000     -1.010234E-001 -9.034515E+001 -5.129813E+001 -5.521977E+001 -5.129464E+001 -5.475892E+001 -3.922161E-001  1.636627E+002
 230.0000     -1.059293E-001 -9.262065E+001 -5.038654E+001 -5.841155E+001 -5.038827E+001 -5.845440E+001 -4.000547E-001  1.587942E+002
 235.0000     -1.119893E-001 -9.491788E+001 -4.955336E+001 -6.199966E+001 -4.954558E+001 -6.185902E+001 -4.084130E-001  1.539603E+002
 240.0000     -1.153695E-001 -9.723734E+001 -4.870819E+001 -6.555771E+001 -4.872374E+001 -6.554381E+001 -4.151438E-001  1.491010E+002
 245.0000     -1.227559E-001 -9.956861E+001 -4.787622E+001 -6.905921E+001 -4.787764E+001 -6.884859E+001 -4.222164E-001  1.442989E+002
 250.0000     -1.260463E-001 -1.019385E+002 -4.705878E+001 -7.253429E+001 -4.705566E+001 -7.250744E+001 -4.261770E-001  1.395080E+002
 255.0000     -1.349796E-001 -1.043392E+002 -4.624518E+001 -7.618378E+001 -4.625946E+001 -7.609901E+001 -4.306333E-001  1.347265E+002
 260.0000     -1.408314E-001 -1.067494E+002 -4.548568E+001 -7.957442E+001 -4.546251E+001 -7.977674E+001 -4.352102E-001  1.299499E+002
 265.0000     -1.458635E-001 -1.092008E+002 -4.470007E+001 -8.333078E+001 -4.470160E+001 -8.333705E+001 -4.347939E-001  1.252045E+002
 270.0000     -1.537345E-001 -1.116945E+002 -4.395720E+001 -8.684582E+001 -4.396712E+001 -8.685042E+001 -4.388443E-001  1.204877E+002
 275.0000     -1.592440E-001 -1.142079E+002 -4.319859E+001 -9.038654E+001 -4.323254E+001 -9.046338E+001 -4.407386E-001  1.157885E+002
 280.0000     -1.674090E-001 -1.167565E+002 -4.249705E+001 -9.410674E+001 -4.247259E+001 -9.403072E+001 -4.409731E-001  1.110994E+002
 285.0000     -1.730768E-001 -1.193566E+002 -4.175072E+001 -9.766334E+001 -4.177059E+001 -9.764125E+001 -4.404096E-001  1.064213E+002
 290.0000     -1.820195E-001 -1.220040E+002 -4.107188E+001 -1.012439E+002 -4.107299E+001 -1.013098E+002 -4.410586E-001  1.017560E+002
 295.0000     -1.901276E-001 -1.246794E+002 -4.038921E+001 -1.048945E+002 -4.038206E+001 -1.049913E+002 -4.389069E-001  9.711361E+001
 300.0000     -1.980700E-001 -1.274074E+002 -3.972050E+001 -1.085171E+002 -3.972800E+001 -1.085652E+002 -4.390733E-001  9.247590E+001
 305.0000     -2.064332E-001 -1.302057E+002 -3.907125E+001 -1.121921E+002 -3.906757E+001 -1.121913E+002 -4.358143E-001  8.784435E+001
 310.0000     -2.174261E-001 -1.330561E+002 -3.843915E+001 -1.159380E+002 -3.843777E+001 -1.159762E+002 -4.358060E-001  8.320885E+001
 315.0000     -2.261582E-001 -1.359829E+002 -3.781387E+001 -1.196754E+002 -3.781783E+001 -1.197000E+002 -4.329921E-001  7.857768E+001
 320.0000     -2.364132E-001 -1.389709E+002 -3.721997E+001 -1.234173E+002 -3.722176E+001 -1.234501E+002 -4.302737E-001  7.395847E+001
 325.0000     -2.477335E-001 -1.420433E+002 -3.664447E+001 -1.272729E+002 -3.664270E+001 -1.272448E+002 -4.279971E-001  6.931133E+001
 330.0000     -2.600123E-001 -1.452129E+002 -3.607746E+001 -1.311679E+002 -3.608775E+001 -1.310963E+002 -4.248299E-001  6.465593E+001
 335.0000     -2.725324E-001 -1.484690E+002 -3.555231E+001 -1.350507E+002 -3.554895E+001 -1.350475E+002 -4.231200E-001  5.997984E+001
 340.0000     -2.855162E-001 -1.518218E+002 -3.504317E+001 -1.390287E+002 -3.503993E+001 -1.389991E+002 -4.216399E-001  5.527845E+001
 345.0000     -2.991317E-001 -1.553215E+002 -3.456744E+001 -1.430886E+002 -3.456428E+001 -1.430665E+002 -4.214392E-001  5.052187E+001
 350.0000     -3.151869E-001 -1.589465E+002 -3.412468E+001 -1.472191E+002 -3.413000E+001 -1.471498E+002 -4.213377E-001  4.572194E+001
 355.0000     -3.304931E-001 -1.626977E+002 -3.373428E+001 -1.513701E+002 -3.373221E+001 -1.513707E+002 -4.213011E-001  4.087746E+001
 360.0000     -3.483891E-001 -1.666293E+002 -3.338976E+001 -1.556398E+002 -3.339522E+001 -1.556709E+002 -4.241705E-001  3.594999E+001
 365.0000     -3.685156E-001 -1.707381E+002 -3.311224E+001 -1.600607E+002 -3.311629E+001 -1.600911E+002 -4.248921E-001  3.094365E+001
 370.0000     -3.886281E-001 -1.750601E+002 -3.291184E+001 -1.645255E+002 -3.291610E+001 -1.645674E+002 -4.310116E-001  2.582745E+001
 375.0000     -4.126935E-001 -1.796242E+002 -3.281205E+001 -1.691312E+002 -3.282491E+001 -1.690863E+002 -4.369710E-001  2.058991E+001
 376.0000     -4.188178E-001  1.794315E+002 -3.281274E+001 -1.700846E+002 -3.281794E+001 -1.700378E+002 -4.376586E-001  1.952127E+001
 377.0000     -4.226872E-001  1.784757E+002 -3.281127E+001 -1.710272E+002 -3.281316E+001 -1.709770E+002 -4.395343E-001  1.843668E+001
 378.0000     -4.272821E-001  1.775107E+002 -3.281951E+001 -1.719139E+002 -3.281950E+001 -1.719145E+002 -4.410983E-001  1.736751E+001
 379.0000     -4.354154E-001  1.765386E+002 -3.283192E+001 -1.728528E+002 -3.284021E+001 -1.728678E+002 -4.429313E-001  1.629723E+001
 380.0000     -4.387574E-001  1.755357E+002 -3.285025E+001 -1.737921E+002 -3.285435E+001 -1.738152E+002 -4.455436E-001  1.519482E+001
 381.0000     -4.455766E-001  1.745380E+002 -3.288274E+001 -1.747574E+002 -3.288338E+001 -1.747321E+002 -4.464400E-001  1.410661E+001
 382.0000     -4.506792E-001  1.735150E+002 -3.291606E+001 -1.757197E+002 -3.291561E+001 -1.756827E+002 -4.485745E-001  1.299281E+001
 383.0000     -4.568363E-001  1.724884E+002 -3.296422E+001 -1.766507E+002 -3.295966E+001 -1.766361E+002 -4.492337E-001  1.187994E+001
 384.0000     -4.612986E-001  1.714463E+002 -3.301152E+001 -1.776490E+002 -3.301466E+001 -1.776178E+002 -4.534622E-001  1.075812E+001
 385.0000     -4.683481E-001  1.703898E+002 -3.307707E+001 -1.785623E+002 -3.307801E+001 -1.785393E+002 -4.552234E-001  9.631244E+000
 386.0000     -4.735342E-001  1.693015E+002 -3.314322E+001 -1.795291E+002 -3.314100E+001 -1.795027E+002 -4.566239E-001  8.495407E+000
 387.0000     -4.823766E-001  1.682159E+002 -3.323296E+001  1.795137E+002 -3.323613E+001  1.795386E+002 -4.600596E-001  7.346924E+000
 388.0000     -4.872167E-001  1.671149E+002 -3.332671E+001  1.785947E+002 -3.333067E+001  1.785783E+002 -4.637311E-001  6.189509E+000
 389.0000     -4.935792E-001  1.659805E+002 -3.342728E+001  1.776209E+002 -3.343243E+001  1.776192E+002 -4.655055E-001  5.020097E+000
 390.0000     -4.998693E-001  1.648533E+002 -3.355233E+001  1.766543E+002 -3.355525E+001  1.766326E+002 -4.686363E-001  3.855011E+000
 391.0000     -5.080005E-001  1.636908E+002 -3.369132E+001  1.757050E+002 -3.369859E+001  1.756912E+002 -4.721544E-001  2.657688E+000
 392.0000     -5.175039E-001  1.625212E+002 -3.384478E+001  1.747763E+002 -3.385136E+001  1.747768E+002 -4.748618E-001  1.464074E+000
 393.0000     -5.243041E-001  1.613237E+002 -3.401973E+001  1.738911E+002 -3.402093E+001  1.738720E+002 -4.786702E-001  2.659873E-001
 394.0000     -5.325052E-001  1.600966E+002 -3.421147E+001  1.729678E+002 -3.421857E+001  1.729665E+002 -4.824487E-001 -9.543432E-001
 395.0000     -5.398111E-001  1.588564E+002 -3.442624E+001  1.720384E+002 -3.443068E+001  1.720880E+002 -4.870272E-001 -2.196377E+000
 396.0000     -5.485615E-001  1.576173E+002 -3.466494E+001  1.712021E+002 -3.467097E+001  1.711931E+002 -4.920968E-001 -3.434178E+000
 397.0000     -5.591598E-001  1.563253E+002 -3.493525E+001  1.703694E+002 -3.493720E+001  1.704131E+002 -4.946477E-001 -4.689352E+000
 398.0000     -5.669920E-001  1.550376E+002 -3.523804E+001  1.695336E+002 -3.524010E+001  1.696364E+002 -5.016592E-001 -5.960116E+000
 399.0000     -5.750877E-001  1.537110E+002 -3.556872E+001  1.688701E+002 -3.557019E+001  1.688494E+002 -5.050653E-001 -7.247128E+000
 400.0000     -5.849088E-001  1.523454E+002 -3.594484E+001  1.681832E+002 -3.594030E+001  1.682369E+002 -5.089061E-001 -8.544492E+000
 401.0000     -5.966280E-001  1.509778E+002 -3.636022E+001  1.676279E+002 -3.637434E+001  1.676110E+002 -5.152364E-001 -9.856743E+000
 402.0000     -6.062309E-001  1.495607E+002 -3.683013E+001  1.671118E+002 -3.683298E+001  1.671425E+002 -5.205305E-001 -1.119264E+001
 403.0000     -6.165782E-001  1.481262E+002 -3.736624E+001  1.668240E+002 -3.737548E+001  1.668495E+002 -5.260643E-001 -1.253150E+001
 404.0000     -6.285197E-001  1.466631E+002 -3.798585E+001  1.666642E+002 -3.797979E+001  1.667018E+002 -5.333812E-001 -1.389304E+001
 405.0000     -6.408658E-001  1.451736E+002 -3.867103E+001  1.668333E+002 -3.868298E+001  1.668595E+002 -5.386409E-001 -1.526904E+001
 406.0000     -6.523744E-001  1.436429E+002 -3.948365E+001  1.673176E+002 -3.947776E+001  1.673346E+002 -5.471672E-001 -1.667312E+001
 407.0000     -6.662511E-001  1.420918E+002 -4.040973E+001  1.683789E+002 -4.039647E+001  1.683616E+002 -5.535486E-001 -1.809463E+001
 408.0000     -6.773842E-001  1.404910E+002 -4.148173E+001  1.702517E+002 -4.149281E+001  1.703058E+002 -5.618311E-001 -1.952094E+001
 409.0000     -6.937073E-001  1.388601E+002 -4.275002E+001  1.734806E+002 -4.274979E+001  1.735600E+002 -5.686089E-001 -2.100228E+001
 410.0000     -7.057108E-001  1.371755E+002 -4.424156E+001  1.787358E+002 -4.424081E+001  1.787662E+002 -5.775594E-001 -2.247895E+001
 411.0000     -7.227786E-001  1.354665E+002 -4.593020E+001 -1.724021E+002 -4.591064E+001 -1.723476E+002 -5.867640E-001 -2.398732E+001
 412.0000     -7.380704E-001  1.337068E+002 -4.756497E+001 -1.579127E+002 -4.754597E+001 -1.580622E+002 -5.968053E-001 -2.552125E+001
 413.0000     -7.561088E-001  1.319014E+002 -4.842825E+001 -1.366075E+002 -4.841705E+001 -1.366136E+002 -6.063670E-001 -2.706071E+001
 414.0000     -7.721437E-001  1.300552E+002 -4.776646E+001 -1.133628E+002 -4.776257E+001 -1.133596E+002 -6.170317E-001 -2.865204E+001
 415.0000     -7.903388E-001  1.281468E+002 -4.593040E+001 -9.576508E+001 -4.588847E+001 -9.566898E+001 -6.299281E-001 -3.026953E+001
 416.0000     -8.118299E-001  1.261955E+002 -4.377971E+001 -8.473189E+001 -4.375957E+001 -8.474608E+001 -6.429613E-001 -3.191005E+001
 417.0000     -8.310244E-001  1.241865E+002 -4.175098E+001 -7.821651E+001 -4.174455E+001 -7.810599E+001 -6.534898E-001 -3.356665E+001
 418.0000     -8.534777E-001  1.221239E+002 -3.995099E+001 -7.457845E+001 -3.994849E+001 -7.454894E+001 -6.676069E-001 -3.527702E+001
 419.0000     -8.762586E-001  1.199803E+002 -3.834714E+001 -7.239096E+001 -3.835222E+001 -7.238472E+001 -6.803442E-001 -3.701501E+001
 420.0000     -9.009155E-001  1.177807E+002 -3.692213E+001 -7.142368E+001 -3.692651E+001 -7.142709E+001 -6.964235E-001 -3.880167E+001
 421.0000     -9.282565E-001  1.155141E+002 -3.565270E+001 -7.108337E+001 -3.564858E+001 -7.104971E+001 -7.128125E-001 -4.060231E+001
 422.0000     -9.546365E-001  1.131598E+002 -3.449480E+001 -7.129533E+001 -3.449895E+001 -7.130511E+001 -7.299997E-001 -4.246240E+001
 423.0000     -9.849131E-001  1.107424E+002 -3.344709E+001 -7.186254E+001 -3.344446E+001 -7.190298E+001 -7.472439E-001 -4.435335E+001
 424.0000     -1.017443E+000  1.082327E+002 -3.249467E+001 -7.276766E+001 -3.249562E+001 -7.274273E+001 -7.678792E-001 -4.630249E+001
 425.0000     -1.049514E+000  1.056219E+002 -3.161909E+001 -7.386764E+001 -3.162043E+001 -7.386316E+001 -7.873545E-001 -4.829221E+001
 426.0000     -1.086754E+000  1.029338E+002 -3.081752E+001 -7.513762E+001 -3.082063E+001 -7.510893E+001 -8.093188E-001 -5.033041E+001
 427.0000     -1.125831E+000  1.001113E+002 -3.007706E+001 -7.656224E+001 -3.008085E+001 -7.657695E+001 -8.337195E-001 -5.242428E+001
 428.0000     -1.166518E+000  9.720362E+001 -2.940726E+001 -7.810418E+001 -2.941261E+001 -7.812404E+001 -8.584003E-001 -5.458215E+001
 429.0000     -1.211247E+000  9.416931E+001 -2.880364E+001 -7.976575E+001 -2.880438E+001 -7.974581E+001 -8.857763E-001 -5.679340E+001
 430.0000     -1.258059E+000  9.100017E+001 -2.826145E+001 -8.147251E+001 -2.826214E+001 -8.146761E+001 -9.138849E-001 -5.907792E+001
 431.0000     -1.310860E+000  8.770153E+001 -2.778157E+001 -8.321940E+001 -2.778592E+001 -8.322626E+001 -9.473354E-001 -6.143286E+001
 432.0000     -1.368186E+000  8.424470E+001 -2.737755E+001 -8.499951E+001 -2.738112E+001 -8.497852E+001 -9.805972E-001 -6.386263E+001
 433.0000     -1.427960E+000  8.061959E+001 -2.704533E+001 -8.675523E+001 -2.704612E+001 -8.673931E+001 -1.015536E+000 -6.637271E+001
 434.0000     -1.495240E+000  7.682236E+001 -2.679845E+001 -8.842466E+001 -2.680123E+001 -8.842764E+001 -1.054989E+000 -6.898267E+001
 435.0000     -1.568371E+000  7.281377E+001 -2.664762E+001 -8.997143E+001 -2.664552E+001 -8.997745E+001 -1.096217E+000 -7.168334E+001
 436.0000     -1.646828E+000  6.861346E+001 -2.660318E+001 -9.123362E+001 -2.660457E+001 -9.120781E+001 -1.141435E+000 -7.449763E+001
 437.0000     -1.734288E+000  6.417741E+001 -2.669159E+001 -9.205588E+001 -2.669139E+001 -9.202099E+001 -1.190732E+000 -7.741608E+001
 438.0000     -1.830992E+000  5.947210E+001 -2.692702E+001 -9.211681E+001 -2.693042E+001 -9.211850E+001 -1.247248E+000 -8.048137E+001
 439.0000     -1.934801E+000  5.449350E+001 -2.734757E+001 -9.093566E+001 -2.734493E+001 -9.095255E+001 -1.306486E+000 -8.368740E+001
 440.0000     -2.053780E+000  4.920276E+001 -2.793448E+001 -8.769598E+001 -2.793441E+001 -8.771487E+001 -1.375598E+000 -8.705683E+001
 441.0000     -2.185521E+000  4.355433E+001 -2.863450E+001 -8.100999E+001 -2.863523E+001 -8.099140E+001 -1.451958E+000 -9.059786E+001
 442.0000     -2.334153E+000  3.752789E+001 -2.913748E+001 -6.918779E+001 -2.913646E+001 -6.916363E+001 -1.537373E+000 -9.433878E+001
 443.0000     -2.503256E+000  3.107758E+001 -2.879010E+001 -5.247312E+001 -2.879093E+001 -5.248742E+001 -1.637889E+000 -9.830939E+001
 444.0000     -2.696192E+000  2.416265E+001 -2.712514E+001 -3.599317E+001 -2.712392E+001 -3.596420E+001 -1.753650E+000 -1.025201E+002
 445.0000     -2.919813E+000  1.671595E+001 -2.458138E+001 -2.497256E+001 -2.458229E+001 -2.497279E+001 -1.892424E+000 -1.070267E+002
 446.0000     -3.180650E+000  8.711959E+000 -2.183417E+001 -1.991036E+001 -2.183278E+001 -1.991251E+001 -2.059042E+000 -1.118264E+002
 447.0000     -3.489077E+000  9.828325E-002 -1.921410E+001 -1.912516E+001 -1.921445E+001 -1.911940E+001 -2.267480E+000 -1.169574E+002
 448.0000     -3.851890E+000 -9.182909E+000 -1.680936E+001 -2.121885E+001 -1.681151E+001 -2.122061E+001 -2.522276E+000 -1.224427E+002
 449.0000     -4.285416E+000 -1.912691E+001 -1.463332E+001 -2.531276E+001 -1.463276E+001 -2.530385E+001 -2.836725E+000 -1.282673E+002
 450.0000     -4.799932E+000 -2.973053E+001 -1.267840E+001 -3.084818E+001 -1.267877E+001 -3.083666E+001 -3.229352E+000 -1.344344E+002
 451.0000     -5.408715E+000 -4.097896E+001 -1.093486E+001 -3.745632E+001 -1.093659E+001 -3.744247E+001 -3.711512E+000 -1.408680E+002
 452.0000     -6.123972E+000 -5.277454E+001 -9.400489E+000 -4.487739E+001 -9.402066E+000 -4.485846E+001 -4.298725E+000 -1.475303E+002
 453.0000     -6.943552E+000 -6.501809E+001 -8.065079E+000 -5.281402E+001 -8.067557E+000 -5.281616E+001 -4.998756E+000 -1.542833E+002
 454.0000     -7.870992E+000 -7.753555E+001 -6.924028E+000 -6.109777E+001 -6.925786E+000 -6.107803E+001 -5.820291E+000 -1.610321E+002
 455.0000     -8.894512E+000 -9.015594E+001 -5.962761E+000 -6.946083E+001 -5.963943E+000 -6.944983E+001 -6.758746E+000 -1.676478E+002
 456.0000     -9.992031E+000 -1.026941E+002 -5.161874E+000 -7.775935E+001 -5.162624E+000 -7.774427E+001 -7.806791E+000 -1.740473E+002
 457.0000     -1.114724E+001 -1.149692E+002 -4.504829E+000 -8.584764E+001 -4.506911E+000 -8.583846E+001 -8.957840E+000  1.798221E+002
 458.0000     -1.233053E+001 -1.267978E+002 -3.968341E+000 -9.362956E+001 -3.970464E+000 -9.363835E+001 -1.019580E+001  1.739576E+002
 459.0000     -1.352327E+001 -1.380162E+002 -3.531367E+000 -1.010663E+002 -3.533041E+000 -1.010743E+002 -1.151887E+001  1.683220E+002
 460.0000     -1.471512E+001 -1.484677E+002 -3.176106E+000 -1.081221E+002 -3.176806E+000 -1.081233E+002 -1.291784E+001  1.628340E+002
 461.0000     -1.589080E+001 -1.579570E+002 -2.884360E+000 -1.148109E+002 -2.886328E+000 -1.148029E+002 -1.439695E+001  1.573368E+002
 462.0000     -1.704426E+001 -1.663801E+002 -2.645895E+000 -1.211167E+002 -2.647162E+000 -1.211166E+002 -1.596128E+001  1.516524E+002
 463.0000     -1.817133E+001 -1.735827E+002 -2.446169E+000 -1.271066E+002 -2.447828E+000 -1.270962E+002 -1.761536E+001  1.455613E+002
 464.0000     -1.927276E+001 -1.794493E+002 -2.281728E+000 -1.327766E+002 -2.283884E+000 -1.327554E+002 -1.937992E+001  1.386902E+002
 465.0000     -2.033583E+001  1.761293E+002 -2.141782E+000 -1.381478E+002 -2.144532E+000 -1.381417E+002 -2.125680E+001  1.304538E+002
 466.0000     -2.133432E+001  1.733184E+002 -2.024448E+000 -1.432751E+002 -2.024005E+000 -1.432590E+002 -2.323913E+001  1.201706E+002
 467.0000     -2.224590E+001  1.719394E+002 -1.922251E+000 -1.481617E+002 -1.922483E+000 -1.481376E+002 -2.522241E+001  1.067464E+002
 468.0000     -2.302487E+001  1.722197E+002 -1.833738E+000 -1.528184E+002 -1.836665E+000 -1.527969E+002 -2.696433E+001  8.897226E+001
 469.0000     -2.363225E+001  1.736970E+002 -1.757696E+000 -1.572863E+002 -1.758911E+000 -1.572750E+002 -2.798289E+001  6.744742E+001
 470.0000     -2.400749E+001  1.760855E+002 -1.691616E+000 -1.615845E+002 -1.693642E+000 -1.615601E+002 -2.798889E+001  4.571145E+001
 471.0000     -2.417469E+001  1.789098E+002 -1.633476E+000 -1.657037E+002 -1.634397E+000 -1.656815E+002 -2.721480E+001  2.737512E+001
 472.0000     -2.413098E+001 -1.785298E+002 -1.580769E+000 -1.696726E+002 -1.583162E+000 -1.696684E+002 -2.613599E+001  1.352215E+001
 473.0000     -2.393670E+001 -1.762036E+002 -1.534391E+000 -1.735172E+002 -1.537669E+000 -1.735146E+002 -2.506623E+001  3.147675E+000
 474.0000     -2.363891E+001 -1.745193E+002 -1.493833E+000 -1.772290E+002 -1.494550E+000 -1.772121E+002 -2.409157E+001 -4.878913E+000
 475.0000     -2.328375E+001 -1.735858E+002 -1.457131E+000  1.791901E+002 -1.457757E+000  1.791869E+002 -2.326293E+001 -1.136606E+001
 476.0000     -2.291117E+001 -1.731596E+002 -1.422073E+000  1.756849E+002 -1.423562E+000  1.757128E+002 -2.254779E+001 -1.679844E+001
 477.0000     -2.253329E+001 -1.732591E+002 -1.392092E+000  1.723088E+002 -1.392820E+000  1.723362E+002 -2.196390E+001 -2.154236E+001
 478.0000     -2.219669E+001 -1.737296E+002 -1.363710E+000  1.690271E+002 -1.364270E+000  1.690311E+002 -2.146287E+001 -2.573428E+001
 479.0000     -2.187522E+001 -1.744857E+002 -1.336730E+000  1.658234E+002 -1.338101E+000  1.658383E+002 -2.105256E+001 -2.955446E+001
 480.0000     -2.159382E+001 -1.755294E+002 -1.313081E+000  1.627193E+002 -1.315222E+000  1.627113E+002 -2.071772E+001 -3.311750E+001
 481.0000     -2.134488E+001 -1.767434E+002 -1.292052E+000  1.596584E+002 -1.291544E+000  1.596623E+002 -2.044538E+001 -3.643864E+001
 482.0000     -2.113695E+001 -1.781102E+002 -1.269093E+000  1.566881E+002 -1.272135E+000  1.566959E+002 -2.023512E+001 -3.957870E+001
 483.0000     -2.095797E+001 -1.794262E+002 -1.249644E+000  1.537779E+002 -1.249648E+000  1.537986E+002 -2.006178E+001 -4.256639E+001
 484.0000     -2.081496E+001  1.791206E+002 -1.230618E+000  1.509445E+002 -1.233729E+000  1.509448E+002 -1.995408E+001 -4.553376E+001
 485.0000     -2.071284E+001  1.777054E+002 -1.213584E+000  1.481450E+002 -1.214895E+000  1.481599E+002 -1.988270E+001 -4.832846E+001
 486.0000     -2.063373E+001  1.762473E+002 -1.196863E+000  1.454318E+002 -1.198252E+000  1.454303E+002 -1.984742E+001 -5.110521E+001
 487.0000     -2.058250E+001  1.748586E+002 -1.180297E+000  1.427500E+002 -1.180551E+000  1.427527E+002 -1.985412E+001 -5.379808E+001
 488.0000     -2.056290E+001  1.734765E+002 -1.165038E+000  1.401266E+002 -1.165365E+000  1.401384E+002 -1.989921E+001 -5.641388E+001
 489.0000     -2.056903E+001  1.721877E+002 -1.149359E+000  1.375432E+002 -1.150355E+000  1.375575E+002 -1.997694E+001 -5.911526E+001
 490.0000     -2.059688E+001  1.708991E+002 -1.134899E+000  1.350099E+002 -1.135584E+000  1.350234E+002 -2.008877E+001 -6.164983E+001
 491.0000     -2.065040E+001  1.697303E+002 -1.121313E+000  1.325143E+002 -1.123000E+000  1.325226E+002 -2.022725E+001 -6.422351E+001
 492.0000     -2.073150E+001  1.686433E+002 -1.107096E+000  1.300558E+002 -1.109971E+000  1.300779E+002 -2.040819E+001 -6.679002E+001
 493.0000     -2.082125E+001  1.676727E+002 -1.094904E+000  1.276464E+002 -1.095071E+000  1.276550E+002 -2.060699E+001 -6.944423E+001
 494.0000     -2.092468E+001  1.667433E+002 -1.081022E+000  1.252671E+002 -1.084673E+000  1.252756E+002 -2.084468E+001 -7.198168E+001
 495.0000     -2.107381E+001  1.659878E+002 -1.069975E+000  1.229144E+002 -1.071199E+000  1.229377E+002 -2.112089E+001 -7.455536E+001
 496.0000     -2.121501E+001  1.653266E+002 -1.058945E+000  1.205941E+002 -1.059208E+000  1.206200E+002 -2.142120E+001 -7.721786E+001
 497.0000     -2.136284E+001  1.647802E+002 -1.047203E+000  1.183230E+002 -1.048841E+000  1.183317E+002 -2.176162E+001 -7.991111E+001
 498.0000     -2.153913E+001  1.644179E+002 -1.035310E+000  1.160694E+002 -1.037742E+000  1.160781E+002 -2.213500E+001 -8.259156E+001
 499.0000     -2.173023E+001  1.641662E+002 -1.025624E+000  1.138419E+002 -1.026580E+000  1.138573E+002 -2.255461E+001 -8.538078E+001
 500.0000     -2.192336E+001  1.641169E+002 -1.014061E+000  1.116382E+002 -1.016274E+000  1.116609E+002 -2.299771E+001 -8.821252E+001
 501.0000     -2.211854E+001  1.641983E+002 -1.006417E+000  1.094704E+002 -1.005985E+000  1.094827E+002 -2.348946E+001 -9.118752E+001
 502.0000     -2.231455E+001  1.644963E+002 -9.959345E-001  1.073299E+002 -9.965766E-001  1.073484E+002 -2.402362E+001 -9.436369E+001
 503.0000     -2.250890E+001  1.649404E+002 -9.871178E-001  1.052150E+002 -9.873366E-001  1.052225E+002 -2.461733E+001 -9.756642E+001
 504.0000     -2.271440E+001  1.654742E+002 -9.780520E-001  1.031148E+002 -9.790227E-001  1.031264E+002 -2.527279E+001 -1.010868E+002
 505.0000     -2.289959E+001  1.662720E+002 -9.695923E-001  1.010441E+002 -9.703168E-001  1.010545E+002 -2.596446E+001 -1.049235E+002
 506.0000     -2.307432E+001  1.672613E+002 -9.617560E-001  9.897659E+001 -9.647667E-001  9.898994E+001 -2.674483E+001 -1.091116E+002
 507.0000     -2.324249E+001  1.684385E+002 -9.547740E-001  9.695536E+001 -9.564505E-001  9.697000E+001 -2.756914E+001 -1.137031E+002
 508.0000     -2.337980E+001  1.697466E+002 -9.483045E-001  9.494933E+001 -9.484277E-001  9.495736E+001 -2.846383E+001 -1.188683E+002
 509.0000     -2.351119E+001  1.711169E+002 -9.408058E-001  9.295390E+001 -9.420813E-001  9.297244E+001 -2.945176E+001 -1.251545E+002
 510.0000     -2.360069E+001  1.727996E+002 -9.341199E-001  9.099286E+001 -9.345692E-001  9.100962E+001 -3.047820E+001 -1.325884E+002
 511.0000     -2.366588E+001  1.743538E+002 -9.293330E-001  8.903297E+001 -9.289341E-001  8.905347E+001 -3.158071E+001 -1.414264E+002
 512.0000     -2.370454E+001  1.761618E+002 -9.232259E-001  8.710657E+001 -9.245097E-001  8.711492E+001 -3.260461E+001 -1.520612E+002
 513.0000     -2.371421E+001  1.779103E+002 -9.191488E-001  8.518645E+001 -9.187273E-001  8.520321E+001 -3.345016E+001 -1.654491E+002
 514.0000     -2.367677E+001  1.796470E+002 -9.113273E-001  8.328532E+001 -9.153440E-001  8.329719E+001 -3.397188E+001  1.797012E+002
 515.0000     -2.362295E+001 -1.786265E+002 -9.094033E-001  8.141092E+001 -9.087557E-001  8.141317E+001 -3.399404E+001  1.637541E+002
 516.0000     -2.353261E+001 -1.770797E+002 -9.030303E-001  7.953854E+001 -9.046643E-001  7.955869E+001 -3.351722E+001  1.486257E+002
 517.0000     -2.340362E+001 -1.754249E+002 -8.977076E-001  7.768815E+001 -9.022480E-001  7.771593E+001 -3.267400E+001  1.359960E+002
 518.0000     -2.326412E+001 -1.740122E+002 -8.957579E-001  7.586005E+001 -8.980083E-001  7.586953E+001 -3.168503E+001  1.249767E+002
 519.0000     -2.310339E+001 -1.727563E+002 -8.911511E-001  7.403249E+001 -8.944493E-001  7.405555E+001 -3.062201E+001  1.162811E+002
 520.0000     -2.291867E+001 -1.716193E+002 -8.890553E-001  7.224023E+001 -8.893921E-001  7.225388E+001 -2.960539E+001  1.090731E+002
 521.0000     -2.272380E+001 -1.705069E+002 -8.867588E-001  7.046122E+001 -8.861023E-001  7.046413E+001 -2.865448E+001  1.031168E+002
 522.0000     -2.253034E+001 -1.696890E+002 -8.835926E-001  6.867496E+001 -8.859967E-001  6.868533E+001 -2.777247E+001  9.814496E+001
 523.0000     -2.230832E+001 -1.689765E+002 -8.805128E-001  6.691764E+001 -8.826984E-001  6.692876E+001 -2.695169E+001  9.361954E+001
 524.0000     -2.209974E+001 -1.684628E+002 -8.814598E-001  6.517598E+001 -8.804953E-001  6.518481E+001 -2.619797E+001  8.980005E+001
 525.0000     -2.187488E+001 -1.680635E+002 -8.770700E-001  6.343542E+001 -8.780318E-001  6.344903E+001 -2.550202E+001  8.633860E+001
 526.0000     -2.165345E+001 -1.677583E+002 -8.752834E-001  6.170873E+001 -8.778346E-001  6.173397E+001 -2.488067E+001  8.326021E+001
 527.0000     -2.144211E+001 -1.676733E+002 -8.745155E-001  6.000612E+001 -8.748052E-001  6.002042E+001 -2.428320E+001  8.039878E+001
 528.0000     -2.122159E+001 -1.676216E+002 -8.713740E-001  5.831239E+001 -8.723806E-001  5.832133E+001 -2.374749E+001  7.761877E+001
 529.0000     -2.101270E+001 -1.677359E+002 -8.718130E-001  5.662851E+001 -8.719881E-001  5.664765E+001 -2.324029E+001  7.508987E+001
 530.0000     -2.081049E+001 -1.679412E+002 -8.693735E-001  5.495417E+001 -8.705889E-001  5.497134E+001 -2.277960E+001  7.280886E+001
 531.0000     -2.060642E+001 -1.682537E+002 -8.699748E-001  5.329609E+001 -8.704761E-001  5.331490E+001 -2.234563E+001  7.054453E+001
 532.0000     -2.041868E+001 -1.686334E+002 -8.683486E-001  5.165259E+001 -8.695889E-001  5.166537E+001 -2.194516E+001  6.842765E+001
 533.0000     -2.024101E+001 -1.690990E+002 -8.673452E-001  5.001254E+001 -8.687354E-001  5.003040E+001 -2.158421E+001  6.631719E+001
 534.0000     -2.006337E+001 -1.696456E+002 -8.675517E-001  4.838507E+001 -8.689292E-001  4.839702E+001 -2.121957E+001  6.438518E+001
 535.0000     -1.989030E+001 -1.702909E+002 -8.662232E-001  4.677219E+001 -8.682636E-001  4.677571E+001 -2.090443E+001  6.248008E+001
 536.0000     -1.972702E+001 -1.710137E+002 -8.652033E-001  4.515276E+001 -8.666899E-001  4.518839E+001 -2.059367E+001  6.068285E+001
 537.0000     -1.957494E+001 -1.717303E+002 -8.658053E-001  4.357143E+001 -8.665994E-001  4.358870E+001 -2.030945E+001  5.889311E+001
 538.0000     -1.942575E+001 -1.726006E+002 -8.647500E-001  4.198684E+001 -8.668154E-001  4.200038E+001 -2.004114E+001  5.716881E+001
 539.0000     -1.928584E+001 -1.734783E+002 -8.650581E-001  4.040190E+001 -8.652269E-001  4.042276E+001 -1.980078E+001  5.551385E+001
 540.0000     -1.916536E+001 -1.743283E+002 -8.651463E-001  3.883589E+001 -8.657361E-001  3.886112E+001 -1.956881E+001  5.391185E+001
 541.0000     -1.905023E+001 -1.753072E+002 -8.643634E-001  3.728111E+001 -8.651428E-001  3.729102E+001 -1.934845E+001  5.227930E+001
 542.0000     -1.893610E+001 -1.763495E+002 -8.646542E-001  3.572853E+001 -8.643484E-001  3.575581E+001 -1.914764E+001  5.075595E+001
 543.0000     -1.883300E+001 -1.773689E+002 -8.633388E-001  3.419341E+001 -8.656597E-001  3.420546E+001 -1.895373E+001  4.921431E+001
 544.0000     -1.873557E+001 -1.784858E+002 -8.624468E-001  3.265550E+001 -8.631868E-001  3.267804E+001 -1.877538E+001  4.776703E+001
 545.0000     -1.864828E+001 -1.795867E+002 -8.644142E-001  3.113822E+001 -8.631689E-001  3.115185E+001 -1.861536E+001  4.629082E+001
 546.0000     -1.856337E+001  1.792618E+002 -8.627914E-001  2.961095E+001 -8.628594E-001  2.964443E+001 -1.846947E+001  4.489931E+001
 547.0000     -1.848578E+001  1.781047E+002 -8.615806E-001  2.810673E+001 -8.639218E-001  2.812431E+001 -1.832339E+001  4.347146E+001
 548.0000     -1.842508E+001  1.768159E+002 -8.618215E-001  2.661385E+001 -8.631472E-001  2.663171E+001 -1.818904E+001  4.211876E+001
 549.0000     -1.836855E+001  1.756106E+002 -8.602703E-001  2.511978E+001 -8.632945E-001  2.514080E+001 -1.807212E+001  4.078963E+001
 550.0000     -1.831158E+001  1.743711E+002 -8.608635E-001  2.363131E+001 -8.612750E-001  2.366258E+001 -1.795726E+001  3.945804E+001
 551.0000     -1.826457E+001  1.730461E+002 -8.611474E-001  2.215842E+001 -8.606004E-001  2.217138E+001 -1.785771E+001  3.818119E+001
 552.0000     -1.822830E+001  1.716884E+002 -8.603756E-001  2.068439E+001 -8.608298E-001  2.070636E+001 -1.776151E+001  3.689946E+001
 553.0000     -1.820208E+001  1.703594E+002 -8.600042E-001  1.920953E+001 -8.603086E-001  1.922646E+001 -1.768229E+001  3.564423E+001
 554.0000     -1.817599E+001  1.689998E+002 -8.586027E-001  1.775159E+001 -8.600008E-001  1.777186E+001 -1.760900E+001  3.441905E+001
 555.0000     -1.815811E+001  1.676151E+002 -8.580170E-001  1.629574E+001 -8.609477E-001  1.631384E+001 -1.754075E+001  3.318533E+001
 556.0000     -1.815195E+001  1.661689E+002 -8.577787E-001  1.485664E+001 -8.584052E-001  1.486990E+001 -1.747936E+001  3.204642E+001
 557.0000     -1.814936E+001  1.647441E+002 -8.567276E-001  1.340223E+001 -8.574971E-001  1.343185E+001 -1.742046E+001  3.087211E+001
 558.0000     -1.814701E+001  1.632635E+002 -8.540394E-001  1.197278E+001 -8.566619E-001  1.199194E+001 -1.737819E+001  2.972609E+001
 559.0000     -1.816357E+001  1.617830E+002 -8.539062E-001  1.054727E+001 -8.566206E-001  1.055942E+001 -1.734121E+001  2.861717E+001
 560.0000     -1.817569E+001  1.602769E+002 -8.536440E-001  9.116558E+000 -8.540215E-001  9.130591E+000 -1.730999E+001  2.754039E+001
 561.0000     -1.819818E+001  1.587092E+002 -8.510662E-001  7.694221E+000 -8.529454E-001  7.716346E+000 -1.728394E+001  2.644970E+001
 562.0000     -1.822903E+001  1.571569E+002 -8.504156E-001  6.278624E+000 -8.517576E-001  6.299611E+000 -1.727051E+001  2.541531E+001
 563.0000     -1.825948E+001  1.555920E+002 -8.499835E-001  4.873011E+000 -8.513919E-001  4.899615E+000 -1.725475E+001  2.439107E+001
 564.0000     -1.829745E+001  1.540034E+002 -8.490342E-001  3.463417E+000 -8.494340E-001  3.480558E+000 -1.725599E+001  2.337951E+001
 565.0000     -1.834977E+001  1.523321E+002 -8.470156E-001  2.061503E+000 -8.484841E-001  2.077648E+000 -1.725585E+001  2.240760E+001
 566.0000     -1.840211E+001  1.506829E+002 -8.448004E-001  6.676093E-001 -8.477905E-001  6.803201E-001 -1.726562E+001  2.140954E+001
 567.0000     -1.846498E+001  1.489834E+002 -8.443533E-001 -7.373579E-001 -8.440336E-001 -7.119123E-001 -1.727715E+001  2.049682E+001
 568.0000     -1.853459E+001  1.472845E+002 -8.427700E-001 -2.124066E+000 -8.430696E-001 -2.103010E+000 -1.730133E+001  1.956520E+001
 569.0000     -1.860217E+001  1.455320E+002 -8.401880E-001 -3.505378E+000 -8.432261E-001 -3.490821E+000 -1.732146E+001  1.864923E+001
 570.0000     -1.868054E+001  1.437707E+002 -8.376674E-001 -4.894695E+000 -8.405857E-001 -4.875497E+000 -1.735990E+001  1.777981E+001
 571.0000     -1.876685E+001  1.419435E+002 -8.374314E-001 -6.271238E+000 -8.395489E-001 -6.258177E+000 -1.739214E+001  1.695170E+001
 572.0000     -1.885795E+001  1.400979E+002 -8.364099E-001 -7.640538E+000 -8.374442E-001 -7.631296E+000 -1.743745E+001  1.613436E+001
 573.0000     -1.895333E+001  1.382746E+002 -8.332134E-001 -9.012457E+000 -8.358239E-001 -9.000429E+000 -1.748479E+001  1.533590E+001
 574.0000     -1.906183E+001  1.363967E+002 -8.317479E-001 -1.038160E+001 -8.331658E-001 -1.037108E+001 -1.753896E+001  1.457088E+001
 575.0000     -1.916315E+001  1.344216E+002 -8.297231E-001 -1.175960E+001 -8.326429E-001 -1.173619E+001 -1.759518E+001  1.381712E+001
 576.0000     -1.929034E+001  1.324772E+002 -8.301726E-001 -1.312142E+001 -8.290108E-001 -1.310134E+001 -1.766792E+001  1.314424E+001
 577.0000     -1.940662E+001  1.303961E+002 -8.276531E-001 -1.448049E+001 -8.290502E-001 -1.445614E+001 -1.773851E+001  1.250545E+001
 578.0000     -1.952606E+001  1.283748E+002 -8.248101E-001 -1.582629E+001 -8.269559E-001 -1.581615E+001 -1.781526E+001  1.181816E+001
 579.0000     -1.966542E+001  1.262769E+002 -8.231392E-001 -1.718672E+001 -8.251217E-001 -1.718378E+001 -1.789381E+001  1.116670E+001
 580.0000     -1.980225E+001  1.241463E+002 -8.210689E-001 -1.854519E+001 -8.231218E-001 -1.852585E+001 -1.798490E+001  1.059507E+001
 581.0000     -1.994211E+001  1.219249E+002 -8.190765E-001 -1.989501E+001 -8.219308E-001 -1.988000E+001 -1.807234E+001  1.009263E+001
 582.0000     -2.009993E+001  1.196354E+002 -8.184746E-001 -2.123562E+001 -8.195528E-001 -2.123232E+001 -1.816610E+001  9.536066E+000
 583.0000     -2.024577E+001  1.173337E+002 -8.158174E-001 -2.258087E+001 -8.164713E-001 -2.257023E+001 -1.827081E+001  9.098877E+000
 584.0000     -2.039995E+001  1.149317E+002 -8.168898E-001 -2.392333E+001 -8.169479E-001 -2.391379E+001 -1.837029E+001  8.662812E+000
 585.0000     -2.056653E+001  1.125132E+002 -8.132458E-001 -2.527229E+001 -8.155375E-001 -2.524816E+001 -1.848063E+001  8.282313E+000
 586.0000     -2.073926E+001  1.100068E+002 -8.103906E-001 -2.660391E+001 -8.137753E-001 -2.658850E+001 -1.859374E+001  7.974570E+000
 587.0000     -2.090323E+001  1.074156E+002 -8.104138E-001 -2.794211E+001 -8.124766E-001 -2.792770E+001 -1.871245E+001  7.650316E+000
 588.0000     -2.108937E+001  1.048049E+002 -8.079056E-001 -2.928963E+001 -8.097149E-001 -2.926274E+001 -1.883167E+001  7.382584E+000
 589.0000     -2.125176E+001  1.021073E+002 -8.065551E-001 -3.061748E+001 -8.082966E-001 -3.060685E+001 -1.895740E+001  7.171962E+000
 590.0000     -2.144018E+001  9.924447E+001 -8.043857E-001 -3.194997E+001 -8.074948E-001 -3.193624E+001 -1.907733E+001  7.080739E+000
 591.0000     -2.162153E+001  9.627793E+001 -8.037316E-001 -3.327296E+001 -8.064841E-001 -3.326347E+001 -1.921952E+001  6.920548E+000
 592.0000     -2.180234E+001  9.335184E+001 -8.046283E-001 -3.461581E+001 -8.047734E-001 -3.459115E+001 -1.934669E+001  6.861457E+000
 593.0000     -2.197709E+001  9.022497E+001 -8.030505E-001 -3.593120E+001 -8.021339E-001 -3.592102E+001 -1.949367E+001  6.930198E+000
 594.0000     -2.216251E+001  8.700768E+001 -8.012273E-001 -3.726538E+001 -8.020149E-001 -3.723798E+001 -1.962808E+001  7.025302E+000
 595.0000     -2.234356E+001  8.367111E+001 -7.997216E-001 -3.858819E+001 -8.016055E-001 -3.857125E+001 -1.976964E+001  7.185227E+000
 596.0000     -2.251632E+001  8.026616E+001 -7.978348E-001 -3.991580E+001 -8.009447E-001 -3.989573E+001 -1.990310E+001  7.370307E+000
 597.0000     -2.267155E+001  7.676299E+001 -7.972421E-001 -4.123420E+001 -7.993976E-001 -4.122237E+001 -2.005159E+001  7.630631E+000
 598.0000     -2.283752E+001  7.312502E+001 -7.965184E-001 -4.256721E+001 -8.000163E-001 -4.253776E+001 -2.018996E+001  8.021862E+000
 599.0000     -2.299013E+001  6.940765E+001 -7.964964E-001 -4.387318E+001 -7.979702E-001 -4.385734E+001 -2.032254E+001  8.401938E+000
 600.0000     -2.312109E+001  6.564524E+001 -7.965330E-001 -4.518570E+001 -7.988001E-001 -4.518172E+001 -2.045897E+001  8.930206E+000
 601.0000     -2.325341E+001  6.162916E+001 -7.959298E-001 -4.651256E+001 -7.958160E-001 -4.649572E+001 -2.059307E+001  9.474227E+000
 602.0000     -2.334967E+001  5.760113E+001 -7.966992E-001 -4.782485E+001 -7.962500E-001 -4.780928E+001 -2.072585E+001  1.013284E+001
 603.0000     -2.344682E+001  5.357049E+001 -7.957834E-001 -4.914677E+001 -7.959006E-001 -4.913697E+001 -2.084369E+001  1.082072E+001
 604.0000     -2.351913E+001  4.934926E+001 -7.956718E-001 -5.045595E+001 -7.973469E-001 -5.042910E+001 -2.097351E+001  1.162387E+001
 605.0000     -2.357699E+001  4.513115E+001 -7.955999E-001 -5.176666E+001 -7.966738E-001 -5.175280E+001 -2.107225E+001  1.248691E+001
 606.0000     -2.360756E+001  4.083173E+001 -7.949262E-001 -5.308583E+001 -7.966254E-001 -5.306300E+001 -2.117949E+001  1.331879E+001
 607.0000     -2.362081E+001  3.645866E+001 -7.966613E-001 -5.440216E+001 -7.969452E-001 -5.437648E+001 -2.128040E+001  1.436872E+001
 608.0000     -2.360282E+001  3.222644E+001 -7.954595E-001 -5.571172E+001 -7.969584E-001 -5.568799E+001 -2.136475E+001  1.536245E+001
 609.0000     -2.357640E+001  2.788468E+001 -7.973274E-001 -5.703255E+001 -7.988740E-001 -5.699727E+001 -2.144006E+001  1.648742E+001
 610.0000     -2.351108E+001  2.365161E+001 -7.972237E-001 -5.833327E+001 -7.986817E-001 -5.830141E+001 -2.150320E+001  1.761417E+001
 611.0000     -2.341331E+001  1.935233E+001 -7.967257E-001 -5.962776E+001 -7.985266E-001 -5.962388E+001 -2.154257E+001  1.882952E+001
 612.0000     -2.332154E+001  1.516435E+001 -7.987471E-001 -6.093975E+001 -8.004430E-001 -6.092836E+001 -2.158615E+001  2.002944E+001
 613.0000     -2.321011E+001  1.113070E+001 -7.992597E-001 -6.226460E+001 -8.020256E-001 -6.224328E+001 -2.160351E+001  2.124673E+001
 614.0000     -2.308184E+001  6.977029E+000 -8.015632E-001 -6.357377E+001 -8.036346E-001 -6.354457E+001 -2.161147E+001  2.251248E+001
 615.0000     -2.292536E+001  3.183693E+000 -8.017662E-001 -6.487118E+001 -8.051182E-001 -6.485249E+001 -2.160031E+001  2.372680E+001
 616.0000     -2.275325E+001 -6.888613E-001 -8.052895E-001 -6.617145E+001 -8.062271E-001 -6.615042E+001 -2.157697E+001  2.493790E+001
 617.0000     -2.257796E+001 -4.413464E+000 -8.055320E-001 -6.748185E+001 -8.073884E-001 -6.746734E+001 -2.154704E+001  2.615172E+001
 618.0000     -2.238947E+001 -8.040293E+000 -8.075940E-001 -6.878581E+001 -8.099415E-001 -6.876765E+001 -2.150400E+001  2.743647E+001
 619.0000     -2.219508E+001 -1.155102E+001 -8.101128E-001 -7.009955E+001 -8.113554E-001 -7.006734E+001 -2.143194E+001  2.857184E+001
 620.0000     -2.199765E+001 -1.499768E+001 -8.110615E-001 -7.140170E+001 -8.134419E-001 -7.139307E+001 -2.136526E+001  2.966664E+001
 621.0000     -2.179810E+001 -1.829959E+001 -8.135375E-001 -7.270506E+001 -8.150093E-001 -7.267205E+001 -2.127945E+001  3.080162E+001
 622.0000     -2.159236E+001 -2.152343E+001 -8.164797E-001 -7.401791E+001 -8.182846E-001 -7.399229E+001 -2.118214E+001  3.182212E+001
 623.0000     -2.138083E+001 -2.463833E+001 -8.208193E-001 -7.531672E+001 -8.210888E-001 -7.528893E+001 -2.107198E+001  3.279176E+001
 624.0000     -2.117239E+001 -2.766042E+001 -8.200206E-001 -7.661933E+001 -8.219488E-001 -7.659441E+001 -2.095277E+001  3.371028E+001
 625.0000     -2.096794E+001 -3.056739E+001 -8.225290E-001 -7.791851E+001 -8.251458E-001 -7.789292E+001 -2.083366E+001  3.453937E+001
 626.0000     -2.075726E+001 -3.340561E+001 -8.271599E-001 -7.923021E+001 -8.278239E-001 -7.919819E+001 -2.070865E+001  3.529684E+001
 627.0000     -2.054641E+001 -3.616629E+001 -8.289702E-001 -8.052596E+001 -8.322326E-001 -8.050314E+001 -2.057166E+001  3.604544E+001
 628.0000     -2.034765E+001 -3.880912E+001 -8.317172E-001 -8.183067E+001 -8.345736E-001 -8.180212E+001 -2.043478E+001  3.663764E+001
 629.0000     -2.015205E+001 -4.145200E+001 -8.348548E-001 -8.313702E+001 -8.369927E-001 -8.310906E+001 -2.029106E+001  3.718878E+001
 630.0000     -1.995062E+001 -4.396431E+001 -8.392124E-001 -8.443336E+001 -8.415806E-001 -8.441576E+001 -2.014542E+001  3.777969E+001
 631.0000     -1.975411E+001 -4.640348E+001 -8.411114E-001 -8.572998E+001 -8.455396E-001 -8.572118E+001 -1.999478E+001  3.814639E+001
 632.0000     -1.957061E+001 -4.879221E+001 -8.462505E-001 -8.703563E+001 -8.467770E-001 -8.702840E+001 -1.984591E+001  3.850458E+001
 633.0000     -1.938153E+001 -5.113958E+001 -8.497429E-001 -8.834271E+001 -8.505449E-001 -8.832035E+001 -1.970073E+001  3.876008E+001
 634.0000     -1.920631E+001 -5.342120E+001 -8.521499E-001 -8.964265E+001 -8.544376E-001 -8.961904E+001 -1.955193E+001  3.903781E+001
 635.0000     -1.904305E+001 -5.567043E+001 -8.555984E-001 -9.095568E+001 -8.556660E-001 -9.093234E+001 -1.940368E+001  3.920370E+001
 636.0000     -1.886924E+001 -5.783733E+001 -8.593863E-001 -9.225547E+001 -8.606462E-001 -9.222545E+001 -1.925708E+001  3.927878E+001
 637.0000     -1.870260E+001 -5.997375E+001 -8.641543E-001 -9.356214E+001 -8.651351E-001 -9.354528E+001 -1.911612E+001  3.931743E+001
 638.0000     -1.854828E+001 -6.204491E+001 -8.663881E-001 -9.487333E+001 -8.675362E-001 -9.484191E+001 -1.897366E+001  3.925148E+001
 639.0000     -1.839652E+001 -6.408137E+001 -8.717151E-001 -9.617775E+001 -8.714292E-001 -9.615975E+001 -1.883289E+001  3.924112E+001
 640.0000     -1.824828E+001 -6.611808E+001 -8.745379E-001 -9.747710E+001 -8.764188E-001 -9.746207E+001 -1.870126E+001  3.912236E+001
 641.0000     -1.810864E+001 -6.808321E+001 -8.791720E-001 -9.878494E+001 -8.814754E-001 -9.878056E+001 -1.857267E+001  3.891972E+001
 642.0000     -1.797550E+001 -6.997517E+001 -8.806423E-001 -1.000984E+002 -8.834245E-001 -1.000777E+002 -1.844604E+001  3.867979E+001
 643.0000     -1.783897E+001 -7.195328E+001 -8.853838E-001 -1.014154E+002 -8.884237E-001 -1.013965E+002 -1.831964E+001  3.847853E+001
 644.0000     -1.772144E+001 -7.378628E+001 -8.902332E-001 -1.027210E+002 -8.937134E-001 -1.027044E+002 -1.820196E+001  3.814856E+001
 645.0000     -1.760354E+001 -7.561147E+001 -8.949760E-001 -1.040413E+002 -8.951526E-001 -1.040103E+002 -1.808052E+001  3.779929E+001
 646.0000     -1.748649E+001 -7.743208E+001 -8.974369E-001 -1.053526E+002 -8.997461E-001 -1.053210E+002 -1.796889E+001  3.738615E+001
 647.0000     -1.737777E+001 -7.921387E+001 -9.027020E-001 -1.066679E+002 -9.049262E-001 -1.066523E+002 -1.786389E+001  3.699637E+001
 648.0000     -1.727388E+001 -8.089886E+001 -9.075842E-001 -1.079736E+002 -9.079617E-001 -1.079477E+002 -1.776629E+001  3.652961E+001
 649.0000     -1.718175E+001 -8.263245E+001 -9.102221E-001 -1.092926E+002 -9.117920E-001 -1.092754E+002 -1.766311E+001  3.597987E+001
 650.0000     -1.709159E+001 -8.435859E+001 -9.149860E-001 -1.106114E+002 -9.153264E-001 -1.105906E+002 -1.757531E+001  3.543760E+001
 651.0000     -1.700984E+001 -8.605204E+001 -9.187608E-001 -1.119468E+002 -9.197406E-001 -1.119089E+002 -1.748509E+001  3.487719E+001
 652.0000     -1.692850E+001 -8.771542E+001 -9.226201E-001 -1.132614E+002 -9.237102E-001 -1.132493E+002 -1.740560E+001  3.428837E+001
 653.0000     -1.685526E+001 -8.930181E+001 -9.272187E-001 -1.145906E+002 -9.280446E-001 -1.145686E+002 -1.733368E+001  3.363100E+001
 654.0000     -1.679084E+001 -9.090024E+001 -9.325172E-001 -1.159160E+002 -9.317453E-001 -1.158948E+002 -1.726365E+001  3.300533E+001
 655.0000     -1.673202E+001 -9.248269E+001 -9.341020E-001 -1.172461E+002 -9.376691E-001 -1.172257E+002 -1.720087E+001  3.224903E+001
 656.0000     -1.667004E+001 -9.404564E+001 -9.382905E-001 -1.185775E+002 -9.406227E-001 -1.185641E+002 -1.713644E+001  3.151296E+001
 657.0000     -1.662794E+001 -9.555941E+001 -9.433887E-001 -1.199140E+002 -9.444358E-001 -1.198934E+002 -1.708678E+001  3.078454E+001
 658.0000     -1.658181E+001 -9.708402E+001 -9.482023E-001 -1.212558E+002 -9.478434E-001 -1.212272E+002 -1.703930E+001  2.998440E+001
 659.0000     -1.654276E+001 -9.859046E+001 -9.496829E-001 -1.225963E+002 -9.505143E-001 -1.225757E+002 -1.699508E+001  2.920879E+001
 660.0000     -1.651271E+001 -1.000413E+002 -9.538482E-001 -1.239411E+002 -9.556657E-001 -1.239186E+002 -1.696043E+001  2.834738E+001
 661.0000     -1.647651E+001 -1.014947E+002 -9.576893E-001 -1.252801E+002 -9.588874E-001 -1.252660E+002 -1.693477E+001  2.745988E+001
 662.0000     -1.646364E+001 -1.028969E+002 -9.615988E-001 -1.266370E+002 -9.621640E-001 -1.266138E+002 -1.691018E+001  2.655828E+001
 663.0000     -1.644417E+001 -1.043067E+002 -9.642886E-001 -1.280007E+002 -9.666707E-001 -1.279700E+002 -1.689915E+001  2.561716E+001
 664.0000     -1.643443E+001 -1.056759E+002 -9.694099E-001 -1.293647E+002 -9.685847E-001 -1.293309E+002 -1.689340E+001  2.471057E+001
 665.0000     -1.643720E+001 -1.070283E+002 -9.719758E-001 -1.307198E+002 -9.724355E-001 -1.306914E+002 -1.688193E+001  2.370001E+001
 666.0000     -1.643667E+001 -1.083731E+002 -9.745567E-001 -1.320812E+002 -9.757298E-001 -1.320598E+002 -1.689556E+001  2.268186E+001
 667.0000     -1.645237E+001 -1.096571E+002 -9.788880E-001 -1.334631E+002 -9.783992E-001 -1.334407E+002 -1.690896E+001  2.166943E+001
 668.0000     -1.646545E+001 -1.109682E+002 -9.817460E-001 -1.348246E+002 -9.803240E-001 -1.348177E+002 -1.692514E+001  2.055971E+001
 669.0000     -1.648995E+001 -1.122040E+002 -9.830530E-001 -1.362224E+002 -9.860202E-001 -1.361942E+002 -1.695908E+001  1.947767E+001
 670.0000     -1.651777E+001 -1.134293E+002 -9.874254E-001 -1.376019E+002 -9.883938E-001 -1.375885E+002 -1.699316E+001  1.837642E+001
 671.0000     -1.655268E+001 -1.145877E+002 -9.897353E-001 -1.389942E+002 -9.937437E-001 -1.389786E+002 -1.704219E+001  1.718562E+001
 672.0000     -1.659179E+001 -1.157467E+002 -9.922485E-001 -1.403905E+002 -9.955903E-001 -1.403841E+002 -1.709924E+001  1.598932E+001
 673.0000     -1.665268E+001 -1.168404E+002 -9.975088E-001 -1.418042E+002 -9.974841E-001 -1.417767E+002 -1.715933E+001  1.474534E+001
 674.0000     -1.670036E+001 -1.179437E+002 -9.988057E-001 -1.432137E+002 -1.000400E+000 -1.431796E+002 -1.722625E+001  1.349049E+001
 675.0000     -1.676596E+001 -1.189745E+002 -1.001225E+000 -1.446272E+002 -1.003648E+000 -1.446150E+002 -1.731319E+001  1.214663E+001
 676.0000     -1.683583E+001 -1.199816E+002 -1.004133E+000 -1.460488E+002 -1.005460E+000 -1.460297E+002 -1.740112E+001  1.082458E+001
 677.0000     -1.691425E+001 -1.209237E+002 -1.006823E+000 -1.474751E+002 -1.009504E+000 -1.474727E+002 -1.750786E+001  9.377642E+000
 678.0000     -1.700336E+001 -1.218156E+002 -1.010947E+000 -1.489221E+002 -1.011605E+000 -1.488994E+002 -1.762500E+001  7.973987E+000
 679.0000     -1.708743E+001 -1.226593E+002 -1.013646E+000 -1.503671E+002 -1.013778E+000 -1.503560E+002 -1.775171E+001  6.457680E+000
 680.0000     -1.717989E+001 -1.234045E+002 -1.015216E+000 -1.518150E+002 -1.016301E+000 -1.518104E+002 -1.789101E+001  4.877602E+000
 681.0000     -1.728837E+001 -1.241759E+002 -1.019308E+000 -1.532889E+002 -1.020432E+000 -1.532669E+002 -1.803759E+001  3.263889E+000
 682.0000     -1.740171E+001 -1.247633E+002 -1.022647E+000 -1.547584E+002 -1.023471E+000 -1.547394E+002 -1.819850E+001  1.557636E+000
 683.0000     -1.751695E+001 -1.253925E+002 -1.027300E+000 -1.562430E+002 -1.027173E+000 -1.562128E+002 -1.838255E+001 -1.894622E-001
 684.0000     -1.764384E+001 -1.258656E+002 -1.029187E+000 -1.577274E+002 -1.030297E+000 -1.577045E+002 -1.857279E+001 -2.032972E+000
 685.0000     -1.776212E+001 -1.262518E+002 -1.032554E+000 -1.592294E+002 -1.034318E+000 -1.592046E+002 -1.879069E+001 -3.999101E+000
 686.0000     -1.790820E+001 -1.264981E+002 -1.036904E+000 -1.607367E+002 -1.035892E+000 -1.607209E+002 -1.901307E+001 -6.069242E+000
 687.0000     -1.804181E+001 -1.267247E+002 -1.039342E+000 -1.622517E+002 -1.040424E+000 -1.622310E+002 -1.925837E+001 -8.289306E+000
 688.0000     -1.818082E+001 -1.267765E+002 -1.042207E+000 -1.637902E+002 -1.043454E+000 -1.637712E+002 -1.951928E+001 -1.056175E+001
 689.0000     -1.831593E+001 -1.267463E+002 -1.047798E+000 -1.653219E+002 -1.048600E+000 -1.652936E+002 -1.981225E+001 -1.306532E+001
 690.0000     -1.846900E+001 -1.265259E+002 -1.050318E+000 -1.668815E+002 -1.050835E+000 -1.668584E+002 -2.010862E+001 -1.564669E+001
 691.0000     -1.860832E+001 -1.261902E+002 -1.056138E+000 -1.684386E+002 -1.057586E+000 -1.684270E+002 -2.043462E+001 -1.852590E+001
 692.0000     -1.874100E+001 -1.256536E+002 -1.061808E+000 -1.700152E+002 -1.062078E+000 -1.700012E+002 -2.078222E+001 -2.170056E+001
 693.0000     -1.885908E+001 -1.250868E+002 -1.066601E+000 -1.716118E+002 -1.066201E+000 -1.715884E+002 -2.114486E+001 -2.496526E+001
 694.0000     -1.898749E+001 -1.243107E+002 -1.070752E+000 -1.732165E+002 -1.073249E+000 -1.731986E+002 -2.153964E+001 -2.866232E+001
 695.0000     -1.909535E+001 -1.232245E+002 -1.077883E+000 -1.748217E+002 -1.077976E+000 -1.748043E+002 -2.193018E+001 -3.271875E+001
 696.0000     -1.917088E+001 -1.221445E+002 -1.084923E+000 -1.764469E+002 -1.084770E+000 -1.764276E+002 -2.234788E+001 -3.720526E+001
 697.0000     -1.924026E+001 -1.208261E+002 -1.090723E+000 -1.780940E+002 -1.092395E+000 -1.780685E+002 -2.277619E+001 -4.220827E+001
 698.0000     -1.927965E+001 -1.193683E+002 -1.101070E+000 -1.797546E+002 -1.099605E+000 -1.797384E+002 -2.319405E+001 -4.777254E+001
 699.0000     -1.928900E+001 -1.178584E+002 -1.108075E+000  1.785791E+002 -1.109368E+000  1.785908E+002 -2.357312E+001 -5.389588E+001
 700.0000     -1.925977E+001 -1.161585E+002 -1.117508E+000  1.768879E+002 -1.118222E+000  1.768968E+002 -2.394206E+001 -6.076816E+001
 701.0000     -1.919797E+001 -1.144344E+002 -1.127327E+000  1.751762E+002 -1.129555E+000  1.751966E+002 -2.421330E+001 -6.836877E+001
 702.0000     -1.909530E+001 -1.126630E+002 -1.139346E+000  1.734563E+002 -1.137439E+000  1.734805E+002 -2.439691E+001 -7.666634E+001
 703.0000     -1.895507E+001 -1.108927E+002 -1.151553E+000  1.717085E+002 -1.152478E+000  1.717466E+002 -2.445228E+001 -8.525230E+001
 704.0000     -1.876157E+001 -1.091684E+002 -1.164425E+000  1.699689E+002 -1.165399E+000  1.699811E+002 -2.436782E+001 -9.409451E+001
 705.0000     -1.854080E+001 -1.076064E+002 -1.178391E+000  1.681844E+002 -1.178409E+000  1.682183E+002 -2.411637E+001 -1.029269E+002
 706.0000     -1.827663E+001 -1.060013E+002 -1.194299E+000  1.663999E+002 -1.194606E+000  1.664150E+002 -2.370515E+001 -1.115678E+002
 707.0000     -1.798666E+001 -1.046398E+002 -1.210077E+000  1.645845E+002 -1.210857E+000  1.646227E+002 -2.320059E+001 -1.197442E+002
 708.0000     -1.765438E+001 -1.034701E+002 -1.226857E+000  1.627579E+002 -1.228926E+000  1.627865E+002 -2.258381E+001 -1.272033E+002
 709.0000     -1.730131E+001 -1.024668E+002 -1.246683E+000  1.609241E+002 -1.248912E+000  1.609429E+002 -2.191311E+001 -1.340318E+002
 710.0000     -1.693054E+001 -1.016679E+002 -1.269216E+000  1.590548E+002 -1.270806E+000  1.590601E+002 -2.120575E+001 -1.401640E+002
 711.0000     -1.654414E+001 -1.010949E+002 -1.291079E+000  1.571595E+002 -1.292470E+000  1.571878E+002 -2.046606E+001 -1.458107E+002
 712.0000     -1.613955E+001 -1.006983E+002 -1.315003E+000  1.552526E+002 -1.318835E+000  1.552708E+002 -1.974694E+001 -1.508721E+002
 713.0000     -1.572691E+001 -1.005525E+002 -1.341935E+000  1.533268E+002 -1.342692E+000  1.533505E+002 -1.902253E+001 -1.555387E+002
 714.0000     -1.530923E+001 -1.005452E+002 -1.371209E+000  1.513829E+002 -1.371728E+000  1.513961E+002 -1.831672E+001 -1.597474E+002
 715.0000     -1.488868E+001 -1.008085E+002 -1.401180E+000  1.494063E+002 -1.404642E+000  1.494285E+002 -1.762878E+001 -1.636168E+002
 716.0000     -1.447091E+001 -1.012270E+002 -1.434506E+000  1.474225E+002 -1.436445E+000  1.474370E+002 -1.696716E+001 -1.672605E+002
 717.0000     -1.404930E+001 -1.018484E+002 -1.471004E+000  1.453913E+002 -1.471591E+000  1.454162E+002 -1.631962E+001 -1.706182E+002
 718.0000     -1.363414E+001 -1.026420E+002 -1.508177E+000  1.433493E+002 -1.510363E+000  1.433755E+002 -1.569671E+001 -1.737820E+002
 719.0000     -1.321691E+001 -1.035573E+002 -1.550644E+000  1.412904E+002 -1.552072E+000  1.413223E+002 -1.509419E+001 -1.767696E+002
 720.0000     -1.281041E+001 -1.046495E+002 -1.595956E+000  1.392125E+002 -1.596199E+000  1.392238E+002 -1.451322E+001 -1.796453E+002
 721.0000     -1.241163E+001 -1.058942E+002 -1.643446E+000  1.371002E+002 -1.643876E+000  1.371172E+002 -1.395665E+001  1.776142E+002
 722.0000     -1.201492E+001 -1.072492E+002 -1.694138E+000  1.349646E+002 -1.694280E+000  1.349953E+002 -1.341398E+001  1.750027E+002
 723.0000     -1.162918E+001 -1.087786E+002 -1.748265E+000  1.328081E+002 -1.748097E+000  1.328438E+002 -1.288963E+001  1.724617E+002
 724.0000     -1.125171E+001 -1.103792E+002 -1.807269E+000  1.306374E+002 -1.807188E+000  1.306541E+002 -1.238844E+001  1.700022E+002
 725.0000     -1.087868E+001 -1.121051E+002 -1.867662E+000  1.284379E+002 -1.871695E+000  1.284380E+002 -1.190522E+001  1.675988E+002
 726.0000     -1.051814E+001 -1.139775E+002 -1.936527E+000  1.262225E+002 -1.935788E+000  1.262204E+002 -1.143431E+001  1.652690E+002
 727.0000     -1.016284E+001 -1.159313E+002 -2.003032E+000  1.239500E+002 -2.005521E+000  1.239738E+002 -1.097869E+001  1.629781E+002
 728.0000     -9.820812E+000 -1.179983E+002 -2.080811E+000  1.216792E+002 -2.082480E+000  1.217104E+002 -1.054144E+001  1.607374E+002
 729.0000     -9.485328E+000 -1.201303E+002 -2.161533E+000  1.193927E+002 -2.159825E+000  1.194105E+002 -1.011538E+001  1.585117E+002
 730.0000     -9.158114E+000 -1.223738E+002 -2.245280E+000  1.170699E+002 -2.247087E+000  1.170936E+002 -9.708170E+000  1.563439E+002
 731.0000     -8.840017E+000 -1.247104E+002 -2.336521E+000  1.147257E+002 -2.338292E+000  1.147381E+002 -9.311220E+000  1.541778E+002
 732.0000     -8.531886E+000 -1.271475E+002 -2.432987E+000  1.123505E+002 -2.433631E+000  1.123850E+002 -8.929790E+000  1.520632E+002
 733.0000     -8.234982E+000 -1.296243E+002 -2.533649E+000  1.099814E+002 -2.534091E+000  1.099902E+002 -8.557391E+000  1.499611E+002
 734.0000     -7.943572E+000 -1.321944E+002 -2.641119E+000  1.075606E+002 -2.642135E+000  1.075834E+002 -8.199706E+000  1.478632E+002
 735.0000     -7.663229E+000 -1.348404E+002 -2.756064E+000  1.051354E+002 -2.755815E+000  1.051560E+002 -7.853465E+000  1.457872E+002
 736.0000     -7.392252E+000 -1.375704E+002 -2.873388E+000  1.026769E+002 -2.876279E+000  1.027050E+002 -7.516781E+000  1.437519E+002
 737.0000     -7.129266E+000 -1.403642E+002 -3.001428E+000  1.002031E+002 -3.004434E+000  1.002349E+002 -7.194814E+000  1.416861E+002
 738.0000     -6.873748E+000 -1.432043E+002 -3.135831E+000  9.772668E+001 -3.137498E+000  9.774409E+001 -6.884250E+000  1.396667E+002
 739.0000     -6.629197E+000 -1.461420E+002 -3.276567E+000  9.520863E+001 -3.277149E+000  9.524112E+001 -6.582386E+000  1.376690E+002
 740.0000     -6.393712E+000 -1.491122E+002 -3.424793E+000  9.269075E+001 -3.426583E+000  9.271329E+001 -6.290857E+000  1.356532E+002
 741.0000     -6.166628E+000 -1.521583E+002 -3.580220E+000  9.015257E+001 -3.582420E+000  9.017673E+001 -6.008847E+000  1.336807E+002
 742.0000     -5.947231E+000 -1.552652E+002 -3.745462E+000  8.760664E+001 -3.745736E+000  8.762025E+001 -5.740381E+000  1.316862E+002
 743.0000     -5.737085E+000 -1.584363E+002 -3.916041E+000  8.502361E+001 -3.918992E+000  8.505647E+001 -5.478714E+000  1.297161E+002
 744.0000     -5.535626E+000 -1.616548E+002 -4.098878E+000  8.243285E+001 -4.100629E+000  8.246917E+001 -5.229140E+000  1.277508E+002
 745.0000     -5.341550E+000 -1.649192E+002 -4.289995E+000  7.984088E+001 -4.289374E+000  7.986207E+001 -4.988834E+000  1.258010E+002
 746.0000     -5.157519E+000 -1.682481E+002 -4.487298E+000  7.723315E+001 -4.488196E+000  7.725621E+001 -4.754731E+000  1.238612E+002
 747.0000     -4.980540E+000 -1.716177E+002 -4.693911E+000  7.461820E+001 -4.696091E+000  7.464875E+001 -4.534049E+000  1.219404E+002
 748.0000     -4.812134E+000 -1.750442E+002 -4.914175E+000  7.199323E+001 -4.912172E+000  7.201925E+001 -4.319902E+000  1.200203E+002
 749.0000     -4.650070E+000 -1.784996E+002 -5.138313E+000  6.936348E+001 -5.140910E+000  6.940105E+001 -4.115375E+000  1.181281E+002
 750.0000     -4.496458E+000  1.779939E+002 -5.374500E+000  6.673942E+001 -5.377122E+000  6.675748E+001 -3.917934E+000  1.162466E+002
 751.0000     -4.350431E+000  1.744591E+002 -5.623915E+000  6.408694E+001 -5.623600E+000  6.411156E+001 -3.731170E+000  1.143570E+002
 752.0000     -4.214612E+000  1.708681E+002 -5.881277E+000  6.145848E+001 -5.880847E+000  6.146958E+001 -3.551820E+000  1.125014E+002
 753.0000     -4.081205E+000  1.672534E+002 -6.147915E+000  5.881311E+001 -6.149593E+000  5.883433E+001 -3.380661E+000  1.106535E+002
 754.0000     -3.958747E+000  1.635917E+002 -6.428604E+000  5.617451E+001 -6.428561E+000  5.619447E+001 -3.216647E+000  1.088306E+002
 755.0000     -3.840970E+000  1.599108E+002 -6.719011E+000  5.355020E+001 -6.721925E+000  5.356676E+001 -3.061415E+000  1.070194E+002
 756.0000     -3.730668E+000  1.561998E+002 -7.023222E+000  5.092462E+001 -7.023569E+000  5.095210E+001 -2.913543E+000  1.052411E+002
 757.0000     -3.625609E+000  1.524549E+002 -7.335199E+000  4.831604E+001 -7.338449E+000  4.833704E+001 -2.773823E+000  1.034609E+002
 758.0000     -3.526266E+000  1.486973E+002 -7.661781E+000  4.570358E+001 -7.664261E+000  4.571372E+001 -2.639571E+000  1.017097E+002
 759.0000     -3.435156E+000  1.449018E+002 -8.000445E+000  4.311517E+001 -8.003718E+000  4.311560E+001 -2.512680E+000  9.995393E+001
 760.0000     -3.345866E+000  1.410856E+002 -8.351212E+000  4.050730E+001 -8.355134E+000  4.055215E+001 -2.393677E+000  9.825880E+001
 761.0000     -3.266176E+000  1.372643E+002 -8.715186E+000  3.795554E+001 -8.719024E+000  3.798464E+001 -2.278627E+000  9.656584E+001
 762.0000     -3.190473E+000  1.334148E+002 -9.093286E+000  3.540149E+001 -9.098529E+000  3.541751E+001 -2.172417E+000  9.488606E+001
 763.0000     -3.117266E+000  1.295591E+002 -9.483797E+000  3.287078E+001 -9.486737E+000  3.290228E+001 -2.068759E+000  9.324217E+001
 764.0000     -3.049729E+000  1.256990E+002 -9.889923E+000  3.037143E+001 -9.894532E+000  3.038042E+001 -1.976740E+000  9.160708E+001
 765.0000     -2.987117E+000  1.218355E+002 -1.030921E+001  2.790176E+001 -1.031302E+001  2.791812E+001 -1.884153E+000  9.001994E+001
 766.0000     -2.928250E+000  1.179672E+002 -1.074485E+001  2.545432E+001 -1.074663E+001  2.547605E+001 -1.799732E+000  8.844460E+001
 767.0000     -2.872998E+000  1.140981E+002 -1.119561E+001  2.303918E+001 -1.119784E+001  2.304758E+001 -1.721351E+000  8.688714E+001
 768.0000     -2.822062E+000  1.102175E+002 -1.166218E+001  2.064014E+001 -1.166018E+001  2.066186E+001 -1.645212E+000  8.536327E+001
 769.0000     -2.772106E+000  1.063581E+002 -1.214383E+001  1.830017E+001 -1.214564E+001  1.831235E+001 -1.577052E+000  8.384855E+001
 770.0000     -2.726920E+000  1.024898E+002 -1.264248E+001  1.599481E+001 -1.264538E+001  1.602070E+001 -1.511778E+000  8.239355E+001
 771.0000     -2.682136E+000  9.865041E+001 -1.315924E+001  1.373323E+001 -1.316213E+001  1.375916E+001 -1.450837E+000  8.093372E+001
 772.0000     -2.640082E+000  9.480965E+001 -1.369443E+001  1.152132E+001 -1.369833E+001  1.153619E+001 -1.394938E+000  7.951308E+001
 773.0000     -2.600914E+000  9.098454E+001 -1.425004E+001  9.344450E+000 -1.425373E+001  9.366902E+000 -1.343417E+000  7.810135E+001
 774.0000     -2.563016E+000  8.720166E+001 -1.482563E+001  7.271775E+000 -1.482825E+001  7.273594E+000 -1.292878E+000  7.673423E+001
 775.0000     -2.529510E+000  8.341004E+001 -1.542252E+001  5.194837E+000 -1.542417E+001  5.228989E+000 -1.245283E+000  7.537868E+001
 776.0000     -2.493631E+000  7.964278E+001 -1.604012E+001  3.228031E+000 -1.604396E+001  3.256269E+000 -1.202525E+000  7.405632E+001
 777.0000     -2.462753E+000  7.592245E+001 -1.668958E+001  1.354883E+000 -1.668984E+001  1.361631E+000 -1.164199E+000  7.276128E+001
 778.0000     -2.432560E+000  7.221217E+001 -1.735844E+001 -4.790148E-001 -1.736163E+001 -4.519750E-001 -1.126807E+000  7.147781E+001
 779.0000     -2.400199E+000  6.854038E+001 -1.805565E+001 -2.186962E+000 -1.805796E+001 -2.146452E+000 -1.091166E+000  7.024449E+001
 780.0000     -2.371397E+000  6.490185E+001 -1.878460E+001 -3.791925E+000 -1.878729E+001 -3.779822E+000 -1.058097E+000  6.900379E+001
 781.0000     -2.342862E+000  6.129584E+001 -1.954943E+001 -5.268347E+000 -1.955050E+001 -5.236790E+000 -1.030133E+000  6.781542E+001
 782.0000     -2.313894E+000  5.771836E+001 -2.034628E+001 -6.609060E+000 -2.034822E+001 -6.598705E+000 -1.002283E+000  6.662309E+001
 783.0000     -2.285438E+000  5.420206E+001 -2.118710E+001 -7.788754E+000 -2.118955E+001 -7.756949E+000 -9.772095E-001  6.547401E+001
 784.0000     -2.259974E+000  5.068995E+001 -2.207179E+001 -8.769237E+000 -2.207384E+001 -8.729500E+000 -9.550461E-001  6.433487E+001
 785.0000     -2.234248E+000  4.724154E+001 -2.300304E+001 -9.466953E+000 -2.300473E+001 -9.452593E+000 -9.307448E-001  6.323342E+001
 786.0000     -2.209133E+000  4.383072E+001 -2.399385E+001 -9.929921E+000 -2.399218E+001 -9.910705E+000 -9.117919E-001  6.213686E+001
 787.0000     -2.182246E+000  4.044371E+001 -2.504283E+001 -1.000919E+001 -2.504197E+001 -9.973959E+000 -8.902448E-001  6.106388E+001
 788.0000     -2.157538E+000  3.713794E+001 -2.615829E+001 -9.600499E+000 -2.615685E+001 -9.567065E+000 -8.732026E-001  6.002173E+001
 789.0000     -2.129503E+000  3.384843E+001 -2.735202E+001 -8.598308E+000 -2.735515E+001 -8.561453E+000 -8.554321E-001  5.898038E+001
 790.0000     -2.106666E+000  3.063181E+001 -2.862490E+001 -6.749223E+000 -2.862705E+001 -6.683362E+000 -8.401494E-001  5.798035E+001
 791.0000     -2.082060E+000  2.743456E+001 -2.997277E+001 -3.820900E+000 -2.997666E+001 -3.803509E+000 -8.257052E-001  5.697384E+001
 792.0000     -2.056146E+000  2.429915E+001 -3.138289E+001  6.310526E-001 -3.139294E+001  6.601404E-001 -8.124674E-001  5.601172E+001
 793.0000     -2.031688E+000  2.118794E+001 -3.281240E+001  7.064652E+000 -3.281656E+001  7.069247E+000 -7.997116E-001  5.504610E+001
 794.0000     -2.007454E+000  1.813698E+001 -3.413329E+001  1.595801E+001 -3.413733E+001  1.603478E+001 -7.886302E-001  5.410588E+001
 795.0000     -1.985177E+000  1.514592E+001 -3.517826E+001  2.756668E+001 -3.518085E+001  2.756417E+001 -7.763982E-001  5.318243E+001
 796.0000     -1.959445E+000  1.219173E+001 -3.568233E+001  4.086927E+001 -3.569150E+001  4.090546E+001 -7.657104E-001  5.227852E+001
 797.0000     -1.934476E+000  9.288674E+000 -3.560371E+001  5.395244E+001 -3.559004E+001  5.398566E+001 -7.542928E-001  5.138758E+001
 798.0000     -1.912006E+000  6.431631E+000 -3.502602E+001  6.513551E+001 -3.503247E+001  6.513209E+001 -7.455307E-001  5.050431E+001
 799.0000     -1.886209E+000  3.607649E+000 -3.420659E+001  7.369267E+001 -3.421787E+001  7.373301E+001 -7.381988E-001  4.964499E+001
 800.0000     -1.862163E+000  8.537080E-001 -3.331909E+001  7.990031E+001 -3.332795E+001  7.996104E+001 -7.276841E-001  4.881445E+001
 801.0000     -1.839278E+000 -1.883099E+000 -3.245265E+001  8.424857E+001 -3.246292E+001  8.428008E+001 -7.204024E-001  4.795023E+001
 802.0000     -1.814983E+000 -4.543429E+000 -3.165548E+001  8.730188E+001 -3.165882E+001  8.732511E+001 -7.115244E-001  4.714492E+001
 803.0000     -1.793478E+000 -7.167427E+000 -3.093559E+001  8.932923E+001 -3.093639E+001  8.930866E+001 -7.039940E-001  4.632289E+001
 804.0000     -1.771235E+000 -9.759719E+000 -3.029034E+001  9.061852E+001 -3.029210E+001  9.060107E+001 -6.961340E-001  4.553170E+001
 805.0000     -1.748277E+000 -1.229709E+001 -2.971774E+001  9.143884E+001 -2.971625E+001  9.145542E+001 -6.893442E-001  4.475166E+001
 806.0000     -1.726792E+000 -1.479624E+001 -2.920995E+001  9.179791E+001 -2.921490E+001  9.184609E+001 -6.815587E-001  4.396529E+001
 807.0000     -1.702948E+000 -1.726574E+001 -2.875926E+001  9.189058E+001 -2.875887E+001  9.194386E+001 -6.743617E-001  4.321037E+001
 808.0000     -1.682549E+000 -1.965681E+001 -2.835924E+001  9.176885E+001 -2.836057E+001  9.182352E+001 -6.691496E-001  4.245556E+001
 809.0000     -1.661533E+000 -2.205588E+001 -2.800903E+001  9.147908E+001 -2.801048E+001  9.149429E+001 -6.627943E-001  4.169751E+001
 810.0000     -1.639881E+000 -2.436890E+001 -2.769830E+001  9.099190E+001 -2.769629E+001  9.104980E+001 -6.570417E-001  4.097606E+001
 811.0000     -1.618974E+000 -2.665780E+001 -2.741839E+001  9.046658E+001 -2.742005E+001  9.048393E+001 -6.510775E-001  4.024430E+001
 812.0000     -1.597714E+000 -2.890443E+001 -2.717425E+001  8.982385E+001 -2.717792E+001  8.983601E+001 -6.457183E-001  3.952269E+001
 813.0000     -1.578520E+000 -3.111944E+001 -2.696148E+001  8.911246E+001 -2.696257E+001  8.914297E+001 -6.408941E-001  3.882987E+001
 814.0000     -1.559390E+000 -3.330367E+001 -2.676988E+001  8.834467E+001 -2.677112E+001  8.835330E+001 -6.340529E-001  3.812757E+001
 815.0000     -1.537418E+000 -3.543405E+001 -2.660364E+001  8.752116E+001 -2.660426E+001  8.755733E+001 -6.281602E-001  3.744982E+001
 816.0000     -1.521881E+000 -3.754788E+001 -2.646125E+001  8.666711E+001 -2.646194E+001  8.668957E+001 -6.233444E-001  3.675367E+001
 817.0000     -1.501684E+000 -3.961002E+001 -2.633637E+001  8.578979E+001 -2.633787E+001  8.582221E+001 -6.173929E-001  3.609126E+001
 818.0000     -1.482324E+000 -4.163586E+001 -2.622482E+001  8.488497E+001 -2.623071E+001  8.488529E+001 -6.135886E-001  3.542163E+001
 819.0000     -1.464519E+000 -4.363306E+001 -2.614069E+001  8.397609E+001 -2.614130E+001  8.400312E+001 -6.075947E-001  3.476730E+001
 820.0000     -1.447340E+000 -4.562030E+001 -2.606166E+001  8.302168E+001 -2.606494E+001  8.303701E+001 -6.026623E-001  3.410867E+001
 821.0000     -1.429927E+000 -4.754121E+001 -2.600167E+001  8.209695E+001 -2.600604E+001  8.209420E+001 -6.000667E-001  3.346911E+001
 822.0000     -1.412678E+000 -4.945278E+001 -2.595312E+001  8.113333E+001 -2.595485E+001  8.117711E+001 -5.938977E-001  3.283839E+001
 823.0000     -1.396529E+000 -5.131749E+001 -2.591780E+001  8.018602E+001 -2.591851E+001  8.020678E+001 -5.907373E-001  3.220273E+001
 824.0000     -1.380066E+000 -5.316070E+001 -2.588868E+001  7.920520E+001 -2.589278E+001  7.926161E+001 -5.841179E-001  3.157349E+001
 825.0000     -1.363047E+000 -5.498433E+001 -2.587758E+001  7.825539E+001 -2.587952E+001  7.826686E+001 -5.805900E-001  3.094531E+001
 826.0000     -1.348835E+000 -5.677059E+001 -2.587005E+001  7.728619E+001 -2.587650E+001  7.734168E+001 -5.751095E-001  3.034595E+001
 827.0000     -1.334008E+000 -5.851684E+001 -2.587496E+001  7.633794E+001 -2.587581E+001  7.636608E+001 -5.688718E-001  2.973488E+001
 828.0000     -1.318851E+000 -6.025875E+001 -2.588711E+001  7.538499E+001 -2.588781E+001  7.541445E+001 -5.650575E-001  2.914423E+001
 829.0000     -1.304269E+000 -6.195968E+001 -2.590948E+001  7.443557E+001 -2.591397E+001  7.444965E+001 -5.620902E-001  2.855404E+001
 830.0000     -1.289910E+000 -6.364607E+001 -2.593819E+001  7.346116E+001 -2.594086E+001  7.349065E+001 -5.574595E-001  2.795310E+001
 831.0000     -1.275583E+000 -6.530402E+001 -2.597044E+001  7.252715E+001 -2.597279E+001  7.255136E+001 -5.519212E-001  2.736677E+001
 832.0000     -1.260892E+000 -6.693682E+001 -2.601362E+001  7.160359E+001 -2.601588E+001  7.159952E+001 -5.488857E-001  2.679295E+001
 833.0000     -1.247351E+000 -6.853420E+001 -2.606097E+001  7.065498E+001 -2.606874E+001  7.069134E+001 -5.459113E-001  2.621982E+001
 834.0000     -1.236214E+000 -7.010972E+001 -2.611864E+001  6.973908E+001 -2.612012E+001  6.976314E+001 -5.430392E-001  2.565324E+001
 835.0000     -1.223472E+000 -7.167039E+001 -2.617866E+001  6.880392E+001 -2.618075E+001  6.883197E+001 -5.366502E-001  2.507833E+001
 836.0000     -1.211402E+000 -7.320806E+001 -2.624319E+001  6.791789E+001 -2.624755E+001  6.791411E+001 -5.315757E-001  2.454389E+001
 837.0000     -1.198051E+000 -7.473479E+001 -2.631637E+001  6.700759E+001 -2.631486E+001  6.700170E+001 -5.300080E-001  2.398706E+001
 838.0000     -1.187400E+000 -7.621181E+001 -2.639587E+001  6.610347E+001 -2.640260E+001  6.610379E+001 -5.257227E-001  2.342022E+001
 839.0000     -1.174883E+000 -7.769109E+001 -2.647561E+001  6.521279E+001 -2.647650E+001  6.521140E+001 -5.233243E-001  2.290210E+001
 840.0000     -1.164600E+000 -7.914162E+001 -2.656215E+001  6.430321E+001 -2.656026E+001  6.438086E+001 -5.186032E-001  2.234725E+001
 841.0000     -1.153067E+000 -8.056557E+001 -2.665160E+001  6.345802E+001 -2.665546E+001  6.349406E+001 -5.147663E-001  2.182481E+001
 842.0000     -1.142589E+000 -8.199419E+001 -2.674656E+001  6.257009E+001 -2.675030E+001  6.261176E+001 -5.119423E-001  2.129099E+001
 843.0000     -1.133156E+000 -8.338245E+001 -2.684591E+001  6.170258E+001 -2.684414E+001  6.177973E+001 -5.090595E-001  2.076704E+001
 844.0000     -1.122546E+000 -8.476138E+001 -2.695244E+001  6.084343E+001 -2.694987E+001  6.086589E+001 -5.045820E-001  2.023553E+001
 845.0000     -1.112882E+000 -8.612321E+001 -2.705713E+001  6.001421E+001 -2.705757E+001  6.006277E+001 -4.996346E-001  1.972526E+001
 846.0000     -1.102198E+000 -8.747977E+001 -2.716285E+001  5.915298E+001 -2.716763E+001  5.918368E+001 -4.967514E-001  1.919623E+001
 847.0000     -1.092984E+000 -8.879517E+001 -2.728175E+001  5.832974E+001 -2.728104E+001  5.837352E+001 -4.945297E-001  1.869606E+001
 848.0000     -1.086115E+000 -9.010196E+001 -2.740262E+001  5.752404E+001 -2.739999E+001  5.751634E+001 -4.910549E-001  1.817962E+001
 849.0000     -1.074120E+000 -9.141695E+001 -2.752351E+001  5.669732E+001 -2.752695E+001  5.673204E+001 -4.885685E-001  1.768718E+001
 850.0000     -1.065765E+000 -9.266954E+001 -2.764210E+001  5.591307E+001 -2.764472E+001  5.595123E+001 -4.852558E-001  1.718968E+001
 851.0000     -1.058092E+000 -9.395434E+001 -2.777293E+001  5.506840E+001 -2.777369E+001  5.508902E+001 -4.793469E-001  1.667781E+001
 852.0000     -1.048659E+000 -9.517271E+001 -2.790552E+001  5.429523E+001 -2.790454E+001  5.429971E+001 -4.780707E-001  1.620264E+001
 853.0000     -1.041960E+000 -9.641890E+001 -2.804039E+001  5.350151E+001 -2.804502E+001  5.353099E+001 -4.756453E-001  1.571617E+001
 854.0000     -1.035171E+000 -9.764317E+001 -2.818103E+001  5.272931E+001 -2.818101E+001  5.275154E+001 -4.732699E-001  1.524190E+001
 855.0000     -1.026209E+000 -9.884696E+001 -2.831842E+001  5.197834E+001 -2.832645E+001  5.198671E+001 -4.703279E-001  1.474943E+001
 856.0000     -1.019125E+000 -1.000425E+002 -2.846336E+001  5.116687E+001 -2.846729E+001  5.121675E+001 -4.664390E-001  1.426277E+001
 857.0000     -1.012561E+000 -1.012175E+002 -2.860880E+001  5.044183E+001 -2.861506E+001  5.045679E+001 -4.630213E-001  1.379775E+001
 858.0000     -1.004573E+000 -1.023805E+002 -2.875712E+001  4.968236E+001 -2.876277E+001  4.972428E+001 -4.602463E-001  1.332458E+001
 859.0000     -9.974335E-001 -1.035406E+002 -2.891009E+001  4.896466E+001 -2.891802E+001  4.899552E+001 -4.589000E-001  1.286830E+001
 860.0000     -9.887955E-001 -1.046734E+002 -2.906683E+001  4.824091E+001 -2.906931E+001  4.828698E+001 -4.563607E-001  1.238721E+001
 861.0000     -9.834865E-001 -1.058179E+002 -2.922736E+001  4.744838E+001 -2.923113E+001  4.754807E+001 -4.530375E-001  1.192735E+001
 862.0000     -9.780895E-001 -1.069250E+002 -2.939072E+001  4.676677E+001 -2.939246E+001  4.680307E+001 -4.501440E-001  1.146549E+001
 863.0000     -9.732383E-001 -1.080311E+002 -2.955625E+001  4.607643E+001 -2.955632E+001  4.610398E+001 -4.474641E-001  1.100899E+001
 864.0000     -9.652548E-001 -1.091244E+002 -2.972123E+001  4.536346E+001 -2.972564E+001  4.535631E+001 -4.451849E-001  1.055937E+001
 865.0000     -9.594163E-001 -1.102161E+002 -2.989427E+001  4.465211E+001 -2.989825E+001  4.468360E+001 -4.430684E-001  1.009479E+001
 866.0000     -9.536331E-001 -1.112940E+002 -3.006837E+001  4.394891E+001 -3.007137E+001  4.399432E+001 -4.407151E-001  9.666372E+000
 867.0000     -9.468748E-001 -1.123534E+002 -3.024934E+001  4.327343E+001 -3.024677E+001  4.329299E+001 -4.388166E-001  9.211581E+000
 868.0000     -9.423541E-001 -1.133997E+002 -3.042993E+001  4.262227E+001 -3.042721E+001  4.264692E+001 -4.359092E-001  8.777098E+000
 869.0000     -9.366935E-001 -1.144439E+002 -3.060825E+001  4.192874E+001 -3.061358E+001  4.195278E+001 -4.342555E-001  8.321124E+000
 870.0000     -9.318911E-001 -1.154751E+002 -3.079715E+001  4.129205E+001 -3.079754E+001  4.132970E+001 -4.309823E-001  7.892793E+000
 875.0000     -9.088040E-001 -1.205077E+002 -3.178057E+001  3.804105E+001 -3.178404E+001  3.811324E+001 -4.217970E-001  5.747309E+000
 880.0000     -8.866982E-001 -1.253325E+002 -3.284982E+001  3.506225E+001 -3.285394E+001  3.510493E+001 -4.113584E-001  3.658458E+000
 885.0000     -8.673706E-001 -1.299442E+002 -3.402073E+001  3.220107E+001 -3.402673E+001  3.222988E+001 -4.032527E-001  1.617293E+000
 890.0000     -8.492282E-001 -1.343832E+002 -3.531669E+001  2.961757E+001 -3.532477E+001  2.967676E+001 -3.937975E-001 -3.642949E-001
 895.0000     -8.330939E-001 -1.386721E+002 -3.678032E+001  2.731090E+001 -3.676781E+001  2.731620E+001 -3.832070E-001 -2.286997E+000
 900.0000     -8.189769E-001 -1.428245E+002 -3.841212E+001  2.534675E+001 -3.841083E+001  2.538111E+001 -3.785734E-001 -4.188686E+000
 905.0000     -8.075641E-001 -1.468435E+002 -4.031993E+001  2.388225E+001 -4.031907E+001  2.398026E+001 -3.697799E-001 -6.031556E+000
 910.0000     -7.967008E-001 -1.507397E+002 -4.261212E+001  2.334039E+001 -4.261961E+001  2.340471E+001 -3.644978E-001 -7.839765E+000
 915.0000     -7.878332E-001 -1.545306E+002 -4.551826E+001  2.437984E+001 -4.552669E+001  2.434265E+001 -3.554350E-001 -9.601457E+000
 920.0000     -7.788546E-001 -1.582293E+002 -4.947490E+001  2.975412E+001 -4.951552E+001  2.970974E+001 -3.528029E-001 -1.132883E+001
 925.0000     -7.725793E-001 -1.618574E+002 -5.529809E+001  5.074395E+001 -5.526630E+001  5.103371E+001 -3.457394E-001 -1.302740E+001
 930.0000     -7.660075E-001 -1.653759E+002 -5.717113E+001  1.192550E+002 -5.725079E+001  1.198868E+002 -3.427245E-001 -1.469050E+001
 935.0000     -7.611503E-001 -1.688258E+002 -5.162297E+001  1.526192E+002 -5.164528E+001  1.527454E+002 -3.374467E-001 -1.631927E+001
 940.0000     -7.558185E-001 -1.722171E+002 -4.774364E+001  1.606403E+002 -4.767480E+001  1.609460E+002 -3.314979E-001 -1.790968E+001
 945.0000     -7.502870E-001 -1.755444E+002 -4.504084E+001  1.628533E+002 -4.507137E+001  1.629177E+002 -3.271918E-001 -1.948694E+001
 950.0000     -7.466395E-001 -1.788201E+002 -4.308940E+001  1.629638E+002 -4.309725E+001  1.631384E+002 -3.237431E-001 -2.104673E+001
 955.0000     -7.435232E-001  1.779727E+002 -4.156268E+001  1.623939E+002 -4.155310E+001  1.623819E+002 -3.214669E-001 -2.256287E+001
 960.0000     -7.419219E-001  1.747792E+002 -4.032388E+001  1.610354E+002 -4.033014E+001  1.612067E+002 -3.153777E-001 -2.405736E+001
 965.0000     -7.382284E-001  1.716645E+002 -3.929812E+001  1.596484E+002 -3.929597E+001  1.596894E+002 -3.117796E-001 -2.554037E+001
 970.0000     -7.349434E-001  1.685721E+002 -3.843525E+001  1.579704E+002 -3.843536E+001  1.579545E+002 -3.110779E-001 -2.700269E+001
 975.0000     -7.325901E-001  1.655244E+002 -3.768236E+001  1.561621E+002 -3.768493E+001  1.562160E+002 -3.085987E-001 -2.843684E+001
 980.0000     -7.311396E-001  1.625203E+002 -3.702274E+001  1.543622E+002 -3.701798E+001  1.545165E+002 -3.047249E-001 -2.985197E+001
 985.0000     -7.281286E-001  1.595301E+002 -3.644481E+001  1.525021E+002 -3.644177E+001  1.525216E+002 -3.019792E-001 -3.124977E+001
 990.0000     -7.292230E-001  1.565803E+002 -3.592157E+001  1.506150E+002 -3.592550E+001  1.505731E+002 -3.006594E-001 -3.261797E+001
 995.0000     -7.274272E-001  1.536478E+002 -3.547101E+001  1.486874E+002 -3.546608E+001  1.487127E+002 -2.995957E-001 -3.398010E+001
1000.0000     -7.262872E-001  1.507479E+002 -3.505433E+001  1.467251E+002 -3.505725E+001  1.467637E+002 -2.967813E-001 -3.533002E+001
1005.0000     -7.244459E-001  1.478708E+002 -3.467022E+001  1.448179E+002 -3.467632E+001  1.448427E+002 -2.948425E-001 -3.665394E+001
1010.0000     -7.237749E-001  1.450239E+002 -3.432518E+001  1.429222E+002 -3.433821E+001  1.428745E+002 -2.925324E-001 -3.795836E+001
1015.0000     -7.242174E-001  1.421716E+002 -3.402051E+001  1.409126E+002 -3.401387E+001  1.409568E+002 -2.885881E-001 -3.926000E+001
1020.0000     -7.257479E-001  1.393356E+002 -3.373191E+001  1.390056E+002 -3.373537E+001  1.390126E+002 -2.878464E-001 -4.053970E+001
1025.0000     -7.238435E-001  1.365315E+002 -3.346426E+001  1.370408E+002 -3.346752E+001  1.370629E+002 -2.879366E-001 -4.180045E+001
1030.0000     -7.213933E-001  1.337441E+002 -3.322266E+001  1.351312E+002 -3.322160E+001  1.350873E+002 -2.853323E-001 -4.306168E+001
1035.0000     -7.232895E-001  1.309647E+002 -3.299715E+001  1.331807E+002 -3.300065E+001  1.331938E+002 -2.842763E-001 -4.429127E+001
1040.0000     -7.218451E-001  1.281931E+002 -3.278692E+001  1.312780E+002 -3.278859E+001  1.312734E+002 -2.826561E-001 -4.552993E+001
1045.0000     -7.222034E-001  1.254369E+002 -3.259168E+001  1.293251E+002 -3.259932E+001  1.293925E+002 -2.800032E-001 -4.674786E+001
1050.0000     -7.223734E-001  1.226884E+002 -3.241979E+001  1.273808E+002 -3.241649E+001  1.274041E+002 -2.818874E-001 -4.794016E+001
1055.0000     -7.223923E-001  1.199405E+002 -3.224590E+001  1.254965E+002 -3.224900E+001  1.255163E+002 -2.797626E-001 -4.913408E+001
1060.0000     -7.214508E-001  1.172221E+002 -3.208789E+001  1.236132E+002 -3.209333E+001  1.236425E+002 -2.794227E-001 -5.032054E+001
1065.0000     -7.222002E-001  1.144991E+002 -3.194134E+001  1.216841E+002 -3.194837E+001  1.217333E+002 -2.784997E-001 -5.150399E+001
1070.0000     -7.236034E-001  1.117764E+002 -3.180430E+001  1.197976E+002 -3.180861E+001  1.198283E+002 -2.783741E-001 -5.264690E+001
1075.0000     -7.233691E-001  1.090563E+002 -3.167253E+001  1.178880E+002 -3.167587E+001  1.179238E+002 -2.785568E-001 -5.378545E+001
1080.0000     -7.238285E-001  1.063435E+002 -3.155569E+001  1.159927E+002 -3.155279E+001  1.160030E+002 -2.776572E-001 -5.495397E+001
1085.0000     -7.237864E-001  1.036457E+002 -3.144570E+001  1.141249E+002 -3.144997E+001  1.141123E+002 -2.780451E-001 -5.606392E+001
1090.0000     -7.248362E-001  1.009258E+002 -3.133885E+001  1.122061E+002 -3.134082E+001  1.122247E+002 -2.740743E-001 -5.718208E+001
1095.0000     -7.246761E-001  9.823457E+001 -3.123958E+001  1.103435E+002 -3.124008E+001  1.103406E+002 -2.760106E-001 -5.829190E+001
1100.0000     -7.218995E-001  9.552837E+001 -3.114402E+001  1.084724E+002 -3.114720E+001  1.085235E+002 -2.755485E-001 -5.938956E+001
1105.0000     -7.245955E-001  9.282867E+001 -3.105866E+001  1.066084E+002 -3.105881E+001  1.065959E+002 -2.750912E-001 -6.048113E+001
1110.0000     -7.231864E-001  9.012833E+001 -3.097234E+001  1.047160E+002 -3.097425E+001  1.046949E+002 -2.744866E-001 -6.158054E+001
1115.0000     -7.244981E-001  8.743347E+001 -3.089026E+001  1.028803E+002 -3.089268E+001  1.028965E+002 -2.723278E-001 -6.264866E+001
1120.0000     -7.273501E-001  8.474989E+001 -3.082291E+001  1.009983E+002 -3.082450E+001  1.010257E+002 -2.728181E-001 -6.372451E+001
1125.0000     -7.252890E-001  8.206498E+001 -3.075326E+001  9.912309E+001 -3.075859E+001  9.914238E+001 -2.732780E-001 -6.478828E+001
1130.0000     -7.251919E-001  7.935754E+001 -3.068872E+001  9.726588E+001 -3.068966E+001  9.730083E+001 -2.745719E-001 -6.584122E+001
1135.0000     -7.257586E-001  7.666994E+001 -3.062370E+001  9.544075E+001 -3.062988E+001  9.545523E+001 -2.733335E-001 -6.688459E+001
1140.0000     -7.256848E-001  7.397196E+001 -3.056979E+001  9.356420E+001 -3.057265E+001  9.357750E+001 -2.748294E-001 -6.792091E+001
1145.0000     -7.263793E-001  7.127830E+001 -3.051863E+001  9.171722E+001 -3.051925E+001  9.172383E+001 -2.753229E-001 -6.896046E+001
1150.0000     -7.253938E-001  6.857694E+001 -3.046667E+001  8.986420E+001 -3.046754E+001  8.985995E+001 -2.742189E-001 -6.999522E+001
1155.0000     -7.283533E-001  6.587639E+001 -3.042270E+001  8.797960E+001 -3.042553E+001  8.801243E+001 -2.752958E-001 -7.102203E+001
1160.0000     -7.252126E-001  6.317374E+001 -3.037296E+001  8.614499E+001 -3.038058E+001  8.614270E+001 -2.740119E-001 -7.203735E+001
1165.0000     -7.280744E-001  6.048014E+001 -3.033728E+001  8.431517E+001 -3.034321E+001  8.436130E+001 -2.748045E-001 -7.303068E+001
1170.0000     -7.272858E-001  5.778571E+001 -3.030205E+001  8.248724E+001 -3.030586E+001  8.249404E+001 -2.756437E-001 -7.404437E+001
1175.0000     -7.262731E-001  5.509307E+001 -3.026241E+001  8.063790E+001 -3.026421E+001  8.063982E+001 -2.738138E-001 -7.503381E+001
1180.0000     -7.251365E-001  5.238915E+001 -3.023621E+001  7.875710E+001 -3.023553E+001  7.884484E+001 -2.749812E-001 -7.602255E+001
1185.0000     -7.258950E-001  4.969376E+001 -3.020319E+001  7.696683E+001 -3.020580E+001  7.701530E+001 -2.766115E-001 -7.701311E+001
1190.0000     -7.275479E-001  4.699482E+001 -3.017227E+001  7.513152E+001 -3.017370E+001  7.514877E+001 -2.748392E-001 -7.798473E+001
1195.0000     -7.283478E-001  4.430182E+001 -3.014897E+001  7.330458E+001 -3.014983E+001  7.331454E+001 -2.749361E-001 -7.895420E+001
1200.0000     -7.280675E-001  4.158219E+001 -3.012926E+001  7.146220E+001 -3.012947E+001  7.148965E+001 -2.767948E-001 -7.992969E+001
1205.0000     -7.287154E-001  3.888596E+001 -3.011115E+001  6.963373E+001 -3.010648E+001  6.966695E+001 -2.760884E-001 -8.089282E+001
1210.0000     -7.288021E-001  3.618266E+001 -3.008542E+001  6.780442E+001 -3.008971E+001  6.782677E+001 -2.763297E-001 -8.184811E+001
1215.0000     -7.282054E-001  3.348280E+001 -3.007298E+001  6.598280E+001 -3.007143E+001  6.600416E+001 -2.776133E-001 -8.279446E+001
1220.0000     -7.292628E-001  3.078227E+001 -3.005798E+001  6.416589E+001 -3.006211E+001  6.414861E+001 -2.772337E-001 -8.373416E+001
1225.0000     -7.288514E-001  2.807405E+001 -3.004320E+001  6.232257E+001 -3.005014E+001  6.235531E+001 -2.789735E-001 -8.469040E+001
1230.0000     -7.295667E-001  2.537836E+001 -3.003902E+001  6.049746E+001 -3.003656E+001  6.054237E+001 -2.790156E-001 -8.564137E+001
1235.0000     -7.315471E-001  2.266845E+001 -3.002788E+001  5.869228E+001 -3.003469E+001  5.869418E+001 -2.793984E-001 -8.657311E+001
1240.0000     -7.303327E-001  1.997470E+001 -3.002209E+001  5.687041E+001 -3.002291E+001  5.690600E+001 -2.816138E-001 -8.750777E+001
1245.0000     -7.311211E-001  1.726226E+001 -3.002000E+001  5.502965E+001 -3.001872E+001  5.509011E+001 -2.805224E-001 -8.843044E+001
1250.0000     -7.312543E-001  1.456997E+001 -3.001165E+001  5.325582E+001 -3.001437E+001  5.326990E+001 -2.812131E-001 -8.935418E+001
1255.0000     -7.317742E-001  1.188100E+001 -3.001635E+001  5.141618E+001 -3.001572E+001  5.145544E+001 -2.809027E-001 -9.027930E+001
1260.0000     -7.317634E-001  9.188841E+000 -3.001445E+001  4.964018E+001 -3.001558E+001  4.965183E+001 -2.819528E-001 -9.118399E+001
1265.0000     -7.333717E-001  6.494931E+000 -3.002024E+001  4.783863E+001 -3.001887E+001  4.782577E+001 -2.823684E-001 -9.211430E+001
1270.0000     -7.348278E-001  3.824751E+000 -3.002020E+001  4.605902E+001 -3.002406E+001  4.604366E+001 -2.851435E-001 -9.300915E+001
1275.0000     -7.367625E-001  1.128868E+000 -3.002607E+001  4.423925E+001 -3.003156E+001  4.423566E+001 -2.841607E-001 -9.391662E+001
1280.0000     -7.350134E-001 -1.549463E+000 -3.003398E+001  4.245436E+001 -3.003508E+001  4.247551E+001 -2.814880E-001 -9.480838E+001
1285.0000     -7.368919E-001 -4.218739E+000 -3.004421E+001  4.066736E+001 -3.004753E+001  4.068496E+001 -2.847270E-001 -9.570974E+001
1290.0000     -7.392511E-001 -6.900224E+000 -3.005267E+001  3.889241E+001 -3.006099E+001  3.890286E+001 -2.833498E-001 -9.658884E+001
1295.0000     -7.392755E-001 -9.577056E+000 -3.006803E+001  3.708554E+001 -3.006791E+001  3.712394E+001 -2.860173E-001 -9.746703E+001
1300.0000     -7.395402E-001 -1.223125E+001 -3.007616E+001  3.531947E+001 -3.007743E+001  3.532766E+001 -2.858111E-001 -9.835352E+001
1305.0000     -7.424121E-001 -1.488524E+001 -3.008846E+001  3.354947E+001 -3.009677E+001  3.358731E+001 -2.857230E-001 -9.924116E+001
1310.0000     -7.438199E-001 -1.754402E+001 -3.011351E+001  3.178511E+001 -3.011471E+001  3.184763E+001 -2.882882E-001 -1.001043E+002
1315.0000     -7.446325E-001 -2.018970E+001 -3.012482E+001  2.998502E+001 -3.013115E+001  2.999455E+001 -2.896561E-001 -1.010092E+002
1320.0000     -7.460817E-001 -2.283290E+001 -3.015100E+001  2.826884E+001 -3.014985E+001  2.822136E+001 -2.888135E-001 -1.018611E+002
1325.0000     -7.483814E-001 -2.546729E+001 -3.016734E+001  2.648617E+001 -3.017102E+001  2.647448E+001 -2.917369E-001 -1.027601E+002
1330.0000     -7.470369E-001 -2.809907E+001 -3.018824E+001  2.471980E+001 -3.018131E+001  2.475299E+001 -2.917097E-001 -1.036054E+002
1335.0000     -7.509786E-001 -3.069927E+001 -3.020944E+001  2.298322E+001 -3.020909E+001  2.299598E+001 -2.917746E-001 -1.044758E+002
1340.0000     -7.511595E-001 -3.332909E+001 -3.022915E+001  2.121958E+001 -3.023248E+001  2.123012E+001 -2.933241E-001 -1.053388E+002
1345.0000     -7.526583E-001 -3.593782E+001 -3.025607E+001  1.950609E+001 -3.025693E+001  1.952125E+001 -2.909640E-001 -1.062003E+002
1350.0000     -7.556434E-001 -3.852765E+001 -3.028640E+001  1.777287E+001 -3.028905E+001  1.777906E+001 -2.937232E-001 -1.070531E+002
1355.0000     -7.561105E-001 -4.111863E+001 -3.030528E+001  1.604586E+001 -3.031139E+001  1.605968E+001 -2.930205E-001 -1.079007E+002
1360.0000     -7.592983E-001 -4.369815E+001 -3.033871E+001  1.429889E+001 -3.033930E+001  1.433522E+001 -2.949547E-001 -1.087397E+002
1365.0000     -7.629232E-001 -4.627167E+001 -3.035635E+001  1.260333E+001 -3.036644E+001  1.263565E+001 -2.951298E-001 -1.095899E+002
1370.0000     -7.622093E-001 -4.882603E+001 -3.039391E+001  1.089191E+001 -3.039418E+001  1.094838E+001 -2.951653E-001 -1.104208E+002
1375.0000     -7.671188E-001 -5.139183E+001 -3.042337E+001  9.190090E+000 -3.042542E+001  9.215782E+000 -2.957607E-001 -1.112646E+002
1380.0000     -7.678506E-001 -5.392678E+001 -3.045071E+001  7.505212E+000 -3.045621E+001  7.512848E+000 -2.975549E-001 -1.120986E+002
1385.0000     -7.692882E-001 -5.646610E+001 -3.049043E+001  5.815821E+000 -3.049004E+001  5.829824E+000 -2.990946E-001 -1.129317E+002
1390.0000     -7.742994E-001 -5.899749E+001 -3.051596E+001  4.134089E+000 -3.051864E+001  4.131521E+000 -3.006591E-001 -1.137654E+002
1395.0000     -7.753815E-001 -6.149943E+001 -3.054985E+001  2.478625E+000 -3.055555E+001  2.476646E+000 -3.017978E-001 -1.145922E+002
1400.0000     -7.781388E-001 -6.400391E+001 -3.058399E+001  7.895873E-001 -3.058993E+001  7.953228E-001 -2.999091E-001 -1.154190E+002
1405.0000     -7.817394E-001 -6.650603E+001 -3.062231E+001 -9.021142E-001 -3.062489E+001 -8.582279E-001 -3.013958E-001 -1.162597E+002
1410.0000     -7.861611E-001 -6.900450E+001 -3.065916E+001 -2.539988E+000 -3.065885E+001 -2.534407E+000 -3.033332E-001 -1.170752E+002
1415.0000     -7.879169E-001 -7.146548E+001 -3.069204E+001 -4.238062E+000 -3.068956E+001 -4.187383E+000 -3.029056E-001 -1.179056E+002
1420.0000     -7.894762E-001 -7.392670E+001 -3.072797E+001 -5.873366E+000 -3.073025E+001 -5.882683E+000 -3.030468E-001 -1.187374E+002
1425.0000     -7.949506E-001 -7.636922E+001 -3.076877E+001 -7.472500E+000 -3.076830E+001 -7.449775E+000 -3.069274E-001 -1.195342E+002
1430.0000     -8.005788E-001 -7.881606E+001 -3.079779E+001 -9.071571E+000 -3.080714E+001 -9.117826E+000 -3.047034E-001 -1.203448E+002
1435.0000     -8.014152E-001 -8.124812E+001 -3.083789E+001 -1.072377E+001 -3.083972E+001 -1.071694E+001 -3.060552E-001 -1.211495E+002
1440.0000     -8.075243E-001 -8.367840E+001 -3.088184E+001 -1.236220E+001 -3.088574E+001 -1.234184E+001 -3.072990E-001 -1.219741E+002
1445.0000     -8.117410E-001 -8.607597E+001 -3.091692E+001 -1.397758E+001 -3.092141E+001 -1.394174E+001 -3.073659E-001 -1.227735E+002
1450.0000     -8.142416E-001 -8.847141E+001 -3.095397E+001 -1.552450E+001 -3.095916E+001 -1.554053E+001 -3.089743E-001 -1.235737E+002
1455.0000     -8.215355E-001 -9.086543E+001 -3.100113E+001 -1.718741E+001 -3.100690E+001 -1.713934E+001 -3.093816E-001 -1.243711E+002
1460.0000     -8.265588E-001 -9.323518E+001 -3.104358E+001 -1.873645E+001 -3.104065E+001 -1.872051E+001 -3.121084E-001 -1.251865E+002
1465.0000     -8.334831E-001 -9.560662E+001 -3.107950E+001 -2.034024E+001 -3.108400E+001 -2.029932E+001 -3.137956E-001 -1.259872E+002
1470.0000     -8.386152E-001 -9.796539E+001 -3.112327E+001 -2.188007E+001 -3.112411E+001 -2.189790E+001 -3.136237E-001 -1.267878E+002
1475.0000     -8.485751E-001 -1.003015E+002 -3.116496E+001 -2.340987E+001 -3.116599E+001 -2.338528E+001 -3.140555E-001 -1.275898E+002
1480.0000     -8.587610E-001 -1.026556E+002 -3.120987E+001 -2.496522E+001 -3.121632E+001 -2.494959E+001 -3.145577E-001 -1.283806E+002
1485.0000     -8.710682E-001 -1.049687E+002 -3.125240E+001 -2.647349E+001 -3.125479E+001 -2.648098E+001 -3.155445E-001 -1.291832E+002
1490.0000     -8.860182E-001 -1.072809E+002 -3.130466E+001 -2.794009E+001 -3.130436E+001 -2.793871E+001 -3.159531E-001 -1.299771E+002
1495.0000     -9.092199E-001 -1.095738E+002 -3.134527E+001 -2.940836E+001 -3.134395E+001 -2.943467E+001 -3.177716E-001 -1.307637E+002
1500.0000     -9.300020E-001 -1.117988E+002 -3.138605E+001 -3.080783E+001 -3.139311E+001 -3.077306E+001 -3.191307E-001 -1.315469E+002
1505.0000     -9.576880E-001 -1.139511E+002 -3.142414E+001 -3.217380E+001 -3.142569E+001 -3.212765E+001 -3.179743E-001 -1.323407E+002
1510.0000     -9.809333E-001 -1.159974E+002 -3.144740E+001 -3.343511E+001 -3.144883E+001 -3.346947E+001 -3.198415E-001 -1.331231E+002
1515.0000     -9.890860E-001 -1.179922E+002 -3.145320E+001 -3.479987E+001 -3.146415E+001 -3.480964E+001 -3.207979E-001 -1.339014E+002
1520.0000     -9.812678E-001 -1.199742E+002 -3.145413E+001 -3.628392E+001 -3.145836E+001 -3.622858E+001 -3.232563E-001 -1.346927E+002
1525.0000     -9.621797E-001 -1.220115E+002 -3.145384E+001 -3.776510E+001 -3.145771E+001 -3.776514E+001 -3.231652E-001 -1.354583E+002
1530.0000     -9.429352E-001 -1.241281E+002 -3.146408E+001 -3.935222E+001 -3.146646E+001 -3.934690E+001 -3.234708E-001 -1.362196E+002
1535.0000     -9.241347E-001 -1.262788E+002 -3.147943E+001 -4.098063E+001 -3.148377E+001 -4.098388E+001 -3.237718E-001 -1.370236E+002
1540.0000     -9.112334E-001 -1.284229E+002 -3.151110E+001 -4.258162E+001 -3.150741E+001 -4.253642E+001 -3.254631E-001 -1.377966E+002
1545.0000     -9.035005E-001 -1.306209E+002 -3.153717E+001 -4.412186E+001 -3.154332E+001 -4.409466E+001 -3.252659E-001 -1.385668E+002
1550.0000     -8.978590E-001 -1.327841E+002 -3.156667E+001 -4.564198E+001 -3.156928E+001 -4.564494E+001 -3.294162E-001 -1.393421E+002
1555.0000     -8.920888E-001 -1.349310E+002 -3.159290E+001 -4.718692E+001 -3.159657E+001 -4.717181E+001 -3.285947E-001 -1.401154E+002
1560.0000     -8.922957E-001 -1.370693E+002 -3.162148E+001 -4.862527E+001 -3.162432E+001 -4.862628E+001 -3.276690E-001 -1.408883E+002
1565.0000     -8.926895E-001 -1.391910E+002 -3.164992E+001 -5.014025E+001 -3.165469E+001 -5.010957E+001 -3.312642E-001 -1.416575E+002
1570.0000     -8.925620E-001 -1.412952E+002 -3.167939E+001 -5.159791E+001 -3.167939E+001 -5.158631E+001 -3.299291E-001 -1.424186E+002
1575.0000     -8.913204E-001 -1.433908E+002 -3.169906E+001 -5.309811E+001 -3.170346E+001 -5.305243E+001 -3.307611E-001 -1.431912E+002
1580.0000     -8.949768E-001 -1.454720E+002 -3.172617E+001 -5.452269E+001 -3.173031E+001 -5.454275E+001 -3.310832E-001 -1.439572E+002
1585.0000     -8.939546E-001 -1.475311E+002 -3.174406E+001 -5.592196E+001 -3.175518E+001 -5.594440E+001 -3.331969E-001 -1.447293E+002
1590.0000     -8.965414E-001 -1.495776E+002 -3.177048E+001 -5.734543E+001 -3.177232E+001 -5.737821E+001 -3.342426E-001 -1.454855E+002
1595.0000     -8.977312E-001 -1.516200E+002 -3.179041E+001 -5.877207E+001 -3.179235E+001 -5.878621E+001 -3.352737E-001 -1.462455E+002
1600.0000     -9.015239E-001 -1.536347E+002 -3.181470E+001 -6.020670E+001 -3.181400E+001 -6.019171E+001 -3.392198E-001 -1.470086E+002
1605.0000     -9.015309E-001 -1.556519E+002 -3.182712E+001 -6.156934E+001 -3.182861E+001 -6.160198E+001 -3.376656E-001 -1.477745E+002
1610.0000     -9.053050E-001 -1.576447E+002 -3.184139E+001 -6.298998E+001 -3.184407E+001 -6.299615E+001 -3.388200E-001 -1.485367E+002
1615.0000     -9.106166E-001 -1.596322E+002 -3.185653E+001 -6.437386E+001 -3.186135E+001 -6.432766E+001 -3.407435E-001 -1.492836E+002
1620.0000     -9.121938E-001 -1.615921E+002 -3.186695E+001 -6.574651E+001 -3.188304E+001 -6.573540E+001 -3.417419E-001 -1.500523E+002
1625.0000     -9.147330E-001 -1.635600E+002 -3.188497E+001 -6.713256E+001 -3.187997E+001 -6.716171E+001 -3.397311E-001 -1.508070E+002
1630.0000     -9.195055E-001 -1.655138E+002 -3.188516E+001 -6.851344E+001 -3.189191E+001 -6.851620E+001 -3.407367E-001 -1.515655E+002
1635.0000     -9.206455E-001 -1.674663E+002 -3.189431E+001 -6.988669E+001 -3.189944E+001 -6.983068E+001 -3.437483E-001 -1.523149E+002
1640.0000     -9.243157E-001 -1.693771E+002 -3.189367E+001 -7.125330E+001 -3.189866E+001 -7.124660E+001 -3.428201E-001 -1.530773E+002
1645.0000     -9.243631E-001 -1.713032E+002 -3.190434E+001 -7.260020E+001 -3.189234E+001 -7.262774E+001 -3.439156E-001 -1.538298E+002
1650.0000     -9.285005E-001 -1.732287E+002 -3.189795E+001 -7.395337E+001 -3.190167E+001 -7.400031E+001 -3.444617E-001 -1.545919E+002
1655.0000     -9.319276E-001 -1.751169E+002 -3.189353E+001 -7.533519E+001 -3.190121E+001 -7.533053E+001 -3.455941E-001 -1.553444E+002
1660.0000     -9.331691E-001 -1.770152E+002 -3.189307E+001 -7.666369E+001 -3.189282E+001 -7.667040E+001 -3.469295E-001 -1.560835E+002
1665.0000     -9.362741E-001 -1.788834E+002 -3.188386E+001 -7.802386E+001 -3.188253E+001 -7.800951E+001 -3.476867E-001 -1.568351E+002
1670.0000     -9.377119E-001  1.792532E+002 -3.187565E+001 -7.931469E+001 -3.187939E+001 -7.929162E+001 -3.509931E-001 -1.575942E+002
1675.0000     -9.417275E-001  1.773963E+002 -3.186506E+001 -8.069221E+001 -3.186121E+001 -8.064859E+001 -3.512000E-001 -1.583672E+002
1680.0000     -9.445533E-001  1.755468E+002 -3.184539E+001 -8.197940E+001 -3.184074E+001 -8.197293E+001 -3.511919E-001 -1.591022E+002
1685.0000     -9.483055E-001  1.737094E+002 -3.182921E+001 -8.333136E+001 -3.183271E+001 -8.331905E+001 -3.522590E-001 -1.598535E+002
1690.0000     -9.496748E-001  1.718877E+002 -3.179850E+001 -8.463677E+001 -3.180392E+001 -8.461287E+001 -3.554250E-001 -1.606114E+002
1695.0000     -9.522718E-001  1.700733E+002 -3.177830E+001 -8.594798E+001 -3.177785E+001 -8.593031E+001 -3.566842E-001 -1.613518E+002
1700.0000     -9.570981E-001  1.682413E+002 -3.175107E+001 -8.730303E+001 -3.175502E+001 -8.724345E+001 -3.572604E-001 -1.621003E+002
1705.0000     -9.599080E-001  1.664521E+002 -3.171676E+001 -8.854003E+001 -3.172331E+001 -8.851440E+001 -3.569802E-001 -1.628764E+002
1710.0000     -9.609147E-001  1.646600E+002 -3.168612E+001 -8.989093E+001 -3.169463E+001 -8.986575E+001 -3.586376E-001 -1.636167E+002
1715.0000     -9.633095E-001  1.628678E+002 -3.164402E+001 -9.116821E+001 -3.164242E+001 -9.119395E+001 -3.579547E-001 -1.643703E+002
1720.0000     -9.638045E-001  1.610819E+002 -3.159960E+001 -9.253560E+001 -3.159970E+001 -9.250616E+001 -3.589457E-001 -1.651314E+002
1725.0000     -9.664900E-001  1.593198E+002 -3.154851E+001 -9.383475E+001 -3.156466E+001 -9.379675E+001 -3.618034E-001 -1.658770E+002
1730.0000     -9.706386E-001  1.575467E+002 -3.150306E+001 -9.510487E+001 -3.150673E+001 -9.511279E+001 -3.615333E-001 -1.666330E+002
1735.0000     -9.726338E-001  1.558068E+002 -3.144656E+001 -9.643188E+001 -3.145280E+001 -9.641831E+001 -3.620310E-001 -1.673992E+002
1740.0000     -9.755265E-001  1.540466E+002 -3.139223E+001 -9.777182E+001 -3.139082E+001 -9.767245E+001 -3.638373E-001 -1.681352E+002
1745.0000     -9.767385E-001  1.523258E+002 -3.132043E+001 -9.901703E+001 -3.132638E+001 -9.902163E+001 -3.659391E-001 -1.689100E+002
1750.0000     -9.794710E-001  1.505867E+002 -3.125324E+001 -1.003290E+002 -3.125843E+001 -1.002857E+002 -3.676877E-001 -1.696698E+002
1755.0000     -9.812863E-001  1.488743E+002 -3.117124E+001 -1.016086E+002 -3.117546E+001 -1.015676E+002 -3.673196E-001 -1.704174E+002
1760.0000     -9.836966E-001  1.471519E+002 -3.109226E+001 -1.029055E+002 -3.109993E+001 -1.029106E+002 -3.716062E-001 -1.711952E+002
1765.0000     -9.862875E-001  1.454311E+002 -3.101353E+001 -1.042203E+002 -3.100703E+001 -1.042081E+002 -3.726504E-001 -1.719616E+002
1770.0000     -9.910790E-001  1.437234E+002 -3.092563E+001 -1.055044E+002 -3.091991E+001 -1.054811E+002 -3.757809E-001 -1.727304E+002
1775.0000     -9.911726E-001  1.420331E+002 -3.081882E+001 -1.068314E+002 -3.082463E+001 -1.067988E+002 -3.772792E-001 -1.735040E+002
1780.0000     -9.937348E-001  1.403328E+002 -3.071606E+001 -1.081102E+002 -3.071242E+001 -1.080910E+002 -3.787110E-001 -1.742801E+002
1785.0000     -9.955090E-001  1.386409E+002 -3.060395E+001 -1.094611E+002 -3.060424E+001 -1.094663E+002 -3.776478E-001 -1.750661E+002
1790.0000     -9.985253E-001  1.369625E+002 -3.047827E+001 -1.107626E+002 -3.048273E+001 -1.107946E+002 -3.826128E-001 -1.758481E+002
1795.0000     -1.001350E+000  1.352852E+002 -3.035069E+001 -1.121160E+002 -3.035054E+001 -1.121096E+002 -3.819415E-001 -1.766334E+002
1800.0000     -1.001199E+000  1.336297E+002 -3.020645E+001 -1.134157E+002 -3.021459E+001 -1.133847E+002 -3.842373E-001 -1.774152E+002
1805.0000     -1.005457E+000  1.319484E+002 -3.006323E+001 -1.147432E+002 -3.006718E+001 -1.147543E+002 -3.865804E-001 -1.782114E+002
1810.0000     -1.007482E+000  1.302873E+002 -2.990979E+001 -1.160956E+002 -2.990917E+001 -1.161119E+002 -3.909670E-001 -1.790135E+002
1815.0000     -1.009623E+000  1.286445E+002 -2.973504E+001 -1.174396E+002 -2.974041E+001 -1.174094E+002 -3.926864E-001 -1.798102E+002
1820.0000     -1.011364E+000  1.270025E+002 -2.956559E+001 -1.188019E+002 -2.956559E+001 -1.188181E+002 -3.950827E-001  1.793542E+002
1825.0000     -1.015573E+000  1.253458E+002 -2.937404E+001 -1.201917E+002 -2.937734E+001 -1.202036E+002 -4.016704E-001  1.785128E+002
1830.0000     -1.017937E+000  1.237011E+002 -2.917327E+001 -1.215562E+002 -2.917579E+001 -1.215880E+002 -4.043314E-001  1.777032E+002
1835.0000     -1.019548E+000  1.220722E+002 -2.895856E+001 -1.229986E+002 -2.896245E+001 -1.229715E+002 -4.102882E-001  1.768438E+002
1840.0000     -1.021953E+000  1.204270E+002 -2.873044E+001 -1.244296E+002 -2.872806E+001 -1.244282E+002 -4.146341E-001  1.759810E+002
1845.0000     -1.025362E+000  1.187935E+002 -2.847852E+001 -1.258827E+002 -2.848356E+001 -1.258866E+002 -4.203640E-001  1.751010E+002
1850.0000     -1.027561E+000  1.171711E+002 -2.821899E+001 -1.273644E+002 -2.821854E+001 -1.274040E+002 -4.254123E-001  1.742007E+002
1855.0000     -1.029669E+000  1.155284E+002 -2.793466E+001 -1.289033E+002 -2.793663E+001 -1.288803E+002 -4.317622E-001  1.733079E+002
1860.0000     -1.032403E+000  1.139037E+002 -2.763420E+001 -1.304469E+002 -2.763462E+001 -1.304027E+002 -4.416625E-001  1.723501E+002
1865.0000     -1.037285E+000  1.122893E+002 -2.731033E+001 -1.320330E+002 -2.731538E+001 -1.320345E+002 -4.500318E-001  1.713951E+002
1870.0000     -1.040196E+000  1.106477E+002 -2.695672E+001 -1.336577E+002 -2.695705E+001 -1.336809E+002 -4.589759E-001  1.704057E+002
1875.0000     -1.043757E+000  1.090321E+002 -2.658097E+001 -1.353552E+002 -2.658229E+001 -1.353898E+002 -4.724855E-001  1.693823E+002
1880.0000     -1.048779E+000  1.074031E+002 -2.617438E+001 -1.371237E+002 -2.617884E+001 -1.371427E+002 -4.893893E-001  1.683085E+002
1885.0000     -1.052912E+000  1.057791E+002 -2.573363E+001 -1.389784E+002 -2.573532E+001 -1.389988E+002 -5.073497E-001  1.671761E+002
1890.0000     -1.057717E+000  1.041434E+002 -2.525057E+001 -1.409680E+002 -2.525014E+001 -1.409643E+002 -5.291122E-001  1.659888E+002
1895.0000     -1.066471E+000  1.025136E+002 -2.472570E+001 -1.430536E+002 -2.472636E+001 -1.430475E+002 -5.583889E-001  1.647333E+002
1900.0000     -1.074573E+000  1.008613E+002 -2.415215E+001 -1.453044E+002 -2.415546E+001 -1.452966E+002 -5.966695E-001  1.633690E+002
1905.0000     -1.084193E+000  9.920634E+001 -2.352219E+001 -1.477375E+002 -2.352515E+001 -1.477626E+002 -6.432923E-001  1.618933E+002
1910.0000     -1.098099E+000  9.754928E+001 -2.282247E+001 -1.504836E+002 -2.282424E+001 -1.504612E+002 -7.025715E-001  1.602555E+002
1915.0000     -1.114538E+000  9.585650E+001 -2.205068E+001 -1.535711E+002 -2.205186E+001 -1.535522E+002 -7.864259E-001  1.584349E+002
1920.0000     -1.136781E+000  9.415828E+001 -2.118205E+001 -1.571023E+002 -2.118548E+001 -1.571202E+002 -9.019536E-001  1.563320E+002
1925.0000     -1.167179E+000  9.240784E+001 -2.021620E+001 -1.613326E+002 -2.021749E+001 -1.613253E+002 -1.069610E+000  1.539142E+002
1930.0000     -1.210164E+000  9.066184E+001 -1.912878E+001 -1.664730E+002 -1.912828E+001 -1.664644E+002 -1.324319E+000  1.510547E+002
1935.0000     -1.274117E+000  8.892152E+001 -1.791387E+001 -1.729908E+002 -1.791589E+001 -1.729925E+002 -1.731761E+000  1.476259E+002
1940.0000     -1.371104E+000  8.720531E+001 -1.658316E+001  1.784246E+002 -1.658278E+001  1.784294E+002 -2.427706E+000  1.436638E+002
1945.0000     -1.512213E+000  8.570779E+001 -1.521441E+001  1.668144E+002 -1.521682E+001  1.668111E+002 -3.682327E+000  1.398118E+002
1950.0000     -1.690098E+000  8.481202E+001 -1.403213E+001  1.511779E+002 -1.403319E+001  1.511873E+002 -5.938663E+000  1.399051E+002
1955.0000     -1.810887E+000  8.476679E+001 -1.345355E+001  1.316597E+002 -1.345653E+001  1.316455E+002 -8.647683E+000  1.567623E+002
1960.0000     -1.756837E+000  8.498255E+001 -1.383072E+001  1.111729E+002 -1.383390E+001  1.111718E+002 -7.454640E+000 -1.760184E+002
1965.0000     -1.588134E+000  8.444273E+001 -1.501924E+001  9.353947E+001 -1.502097E+001  9.354108E+001 -4.693165E+000 -1.696963E+002
1970.0000     -1.427443E+000  8.314824E+001 -1.656945E+001  8.013863E+001 -1.657088E+001  8.015578E+001 -3.001635E+000 -1.723450E+002
1975.0000     -1.313113E+000  8.150275E+001 -1.816151E+001  7.029687E+001 -1.816438E+001  7.030711E+001 -2.075477E+000 -1.763216E+002
1980.0000     -1.238458E+000  7.976773E+001 -1.965906E+001  6.291548E+001 -1.966286E+001  6.294802E+001 -1.544021E+000 -1.799595E+002
1985.0000     -1.189762E+000  7.801958E+001 -2.103568E+001  5.720754E+001 -2.103300E+001  5.721293E+001 -1.220091E+000  1.769454E+002
1990.0000     -1.157068E+000  7.632031E+001 -2.228407E+001  5.261008E+001 -2.228732E+001  5.261046E+001 -1.015044E+000  1.743597E+002
1995.0000     -1.136613E+000  7.463078E+001 -2.342123E+001  4.882453E+001 -2.342378E+001  4.881034E+001 -8.738981E-001  1.721604E+002
2000.0000     -1.117160E+000  7.297743E+001 -2.446149E+001  4.554974E+001 -2.446321E+001  4.555987E+001 -7.741140E-001  1.702379E+002
2005.0000     -1.108174E+000  7.133318E+001 -2.541767E+001  4.267919E+001 -2.542089E+001  4.270737E+001 -7.013453E-001  1.685389E+002
2010.0000     -1.098215E+000  6.972909E+001 -2.630028E+001  4.015088E+001 -2.630557E+001  4.016308E+001 -6.468288E-001  1.670086E+002
2015.0000     -1.091560E+000  6.815194E+001 -2.712619E+001  3.782545E+001 -2.712992E+001  3.784914E+001 -6.057717E-001  1.656141E+002
2020.0000     -1.086103E+000  6.656794E+001 -2.789248E+001  3.569966E+001 -2.789909E+001  3.571757E+001 -5.710316E-001  1.643292E+002
2025.0000     -1.085020E+000  6.499761E+001 -2.862112E+001  3.370251E+001 -2.861825E+001  3.369361E+001 -5.450695E-001  1.631401E+002
2030.0000     -1.079965E+000  6.344675E+001 -2.929764E+001  3.184695E+001 -2.929877E+001  3.187093E+001 -5.251527E-001  1.620044E+002
2035.0000     -1.078333E+000  6.189434E+001 -2.993747E+001  3.006091E+001 -2.994250E+001  3.008072E+001 -5.081086E-001  1.609341E+002
2040.0000     -1.077469E+000  6.035824E+001 -3.054980E+001  2.834009E+001 -3.055254E+001  2.840260E+001 -4.918898E-001  1.599105E+002
2045.0000     -1.075411E+000  5.882209E+001 -3.112810E+001  2.673688E+001 -3.113031E+001  2.675082E+001 -4.806408E-001  1.589383E+002
2050.0000     -1.075296E+000  5.730169E+001 -3.168422E+001  2.517867E+001 -3.168226E+001  2.515285E+001 -4.687222E-001  1.579789E+002
2055.0000     -1.075108E+000  5.577571E+001 -3.220869E+001  2.365332E+001 -3.221558E+001  2.367921E+001 -4.618720E-001  1.570807E+002
2060.0000     -1.075681E+000  5.424479E+001 -3.271582E+001  2.219049E+001 -3.272442E+001  2.216252E+001 -4.555815E-001  1.561900E+002
2065.0000     -1.074897E+000  5.272169E+001 -3.320118E+001  2.069892E+001 -3.320110E+001  2.070378E+001 -4.478090E-001  1.553042E+002
2070.0000     -1.073805E+000  5.121398E+001 -3.366209E+001  1.929758E+001 -3.366524E+001  1.935038E+001 -4.420676E-001  1.544649E+002
2075.0000     -1.073706E+000  4.969543E+001 -3.410336E+001  1.791561E+001 -3.412096E+001  1.793238E+001 -4.378102E-001  1.536337E+002
2080.0000     -1.073574E+000  4.818724E+001 -3.453279E+001  1.650209E+001 -3.454074E+001  1.656279E+001 -4.338596E-001  1.528131E+002
2085.0000     -1.071953E+000  4.668070E+001 -3.495199E+001  1.517147E+001 -3.495879E+001  1.518013E+001 -4.295292E-001  1.520206E+002
2090.0000     -1.073747E+000  4.517613E+001 -3.534187E+001  1.386373E+001 -3.534667E+001  1.388765E+001 -4.270070E-001  1.512131E+002
2095.0000     -1.073359E+000  4.367633E+001 -3.572793E+001  1.258906E+001 -3.572961E+001  1.253532E+001 -4.232426E-001  1.504502E+002
2100.0000     -1.071165E+000  4.219274E+001 -3.609333E+001  1.126527E+001 -3.610707E+001  1.124225E+001 -4.203426E-001  1.496838E+002
2105.0000     -1.073907E+000  4.069601E+001 -3.644635E+001  9.963107E+000 -3.644960E+001  1.000741E+001 -4.187265E-001  1.489151E+002
2110.0000     -1.072487E+000  3.920768E+001 -3.680040E+001  8.743294E+000 -3.680334E+001  8.753969E+000 -4.164963E-001  1.481760E+002
2115.0000     -1.073324E+000  3.771636E+001 -3.712535E+001  7.390304E+000 -3.711688E+001  7.432868E+000 -4.100293E-001  1.474233E+002
2120.0000     -1.075347E+000  3.623036E+001 -3.745502E+001  6.229886E+000 -3.746120E+001  6.117380E+000 -4.104369E-001  1.467033E+002
2125.0000     -1.073599E+000  3.472849E+001 -3.775536E+001  4.945497E+000 -3.775237E+001  4.992473E+000 -4.086237E-001  1.459520E+002
2130.0000     -1.074871E+000  3.323965E+001 -3.804178E+001  3.735081E+000 -3.806621E+001  3.640996E+000 -4.092503E-001  1.452354E+002
2135.0000     -1.077392E+000  3.175430E+001 -3.833863E+001  2.434774E+000 -3.834606E+001  2.486877E+000 -4.080478E-001  1.445216E+002
2140.0000     -1.076761E+000  3.025263E+001 -3.860889E+001  1.208799E+000 -3.860916E+001  1.203596E+000 -4.057098E-001  1.438098E+002
2145.0000     -1.077371E+000  2.876560E+001 -3.887647E+001 -3.914972E-002 -3.887935E+001 -8.346342E-002 -4.056923E-001  1.431027E+002
2150.0000     -1.076606E+000  2.727200E+001 -3.912361E+001 -1.234428E+000 -3.914507E+001 -1.224868E+000 -4.029148E-001  1.423887E+002
2155.0000     -1.075613E+000  2.577585E+001 -3.938148E+001 -2.504721E+000 -3.937069E+001 -2.424338E+000 -4.011754E-001  1.416804E+002
2160.0000     -1.076925E+000  2.429452E+001 -3.960625E+001 -3.683161E+000 -3.961803E+001 -3.700193E+000 -4.024889E-001  1.409927E+002
2165.0000     -1.077476E+000  2.280910E+001 -3.982287E+001 -4.877087E+000 -3.984268E+001 -4.858967E+000 -4.009904E-001  1.403011E+002
2170.0000     -1.076346E+000  2.131459E+001 -4.003535E+001 -6.120441E+000 -4.004849E+001 -6.121160E+000 -3.997858E-001  1.395942E+002
2175.0000     -1.076879E+000  1.983974E+001 -4.025039E+001 -7.451182E+000 -4.025342E+001 -7.371381E+000 -3.981991E-001  1.389039E+002
2180.0000     -1.077211E+000  1.835434E+001 -4.044979E+001 -8.606500E+000 -4.045556E+001 -8.553803E+000 -3.971464E-001  1.382328E+002
2185.0000     -1.077044E+000  1.688249E+001 -4.061944E+001 -9.753914E+000 -4.062572E+001 -9.771826E+000 -3.997411E-001  1.375570E+002
2190.0000     -1.076911E+000  1.539374E+001 -4.079697E+001 -1.092652E+001 -4.080354E+001 -1.099039E+001 -3.971803E-001  1.368723E+002
2195.0000     -1.077213E+000  1.390920E+001 -4.095015E+001 -1.216901E+001 -4.096473E+001 -1.226306E+001 -3.978671E-001  1.361875E+002
2200.0000     -1.077648E+000  1.241917E+001 -4.109264E+001 -1.346908E+001 -4.110915E+001 -1.337630E+001 -3.964268E-001  1.355212E+002
2205.0000     -1.079221E+000  1.093010E+001 -4.122818E+001 -1.466550E+001 -4.125087E+001 -1.469252E+001 -3.964277E-001  1.348472E+002
2210.0000     -1.079656E+000  9.452029E+000 -4.136374E+001 -1.585663E+001 -4.137064E+001 -1.594474E+001 -3.951303E-001  1.341748E+002
2215.0000     -1.080246E+000  7.970527E+000 -4.149101E+001 -1.716352E+001 -4.146834E+001 -1.702929E+001 -3.952090E-001  1.335123E+002
2220.0000     -1.082174E+000  6.467005E+000 -4.159049E+001 -1.848875E+001 -4.158152E+001 -1.839273E+001 -3.940827E-001  1.328332E+002
2225.0000     -1.079665E+000  4.974691E+000 -4.166937E+001 -1.961717E+001 -4.166676E+001 -1.953782E+001 -3.938333E-001  1.321648E+002
2250.0000     -1.078059E+000 -2.469898E+000 -4.189128E+001 -2.607092E+001 -4.191379E+001 -2.610489E+001 -3.927320E-001  1.288634E+002
2275.0000     -1.081940E+000 -9.894366E+000 -4.167381E+001 -3.304853E+001 -4.169938E+001 -3.288087E+001 -3.929778E-001  1.255545E+002
2300.0000     -1.081120E+000 -1.738286E+001 -4.081180E+001 -4.078439E+001 -4.081337E+001 -4.081872E+001 -3.989172E-001  1.222231E+002
2325.0000     -1.086800E+000 -2.490124E+001 -3.887534E+001 -5.102285E+001 -3.888388E+001 -5.104917E+001 -4.140925E-001  1.187932E+002
2350.0000     -1.114853E+000 -3.252739E+001 -3.467345E+001 -7.080037E+001 -3.467929E+001 -7.086375E+001 -5.067236E-001  1.149603E+002
2375.0000     -1.239395E+000 -3.921144E+001 -3.010308E+001 -1.513241E+002 -3.010129E+001 -1.513064E+002 -9.225038E-001  1.143248E+002
2400.0000     -1.098193E+000 -4.648386E+001 -3.927133E+001  1.508553E+002 -3.929081E+001  1.510236E+002 -4.691957E-001  1.117451E+002
2425.0000     -1.075873E+000 -5.404729E+001 -4.566231E+001  1.351070E+002 -4.565178E+001  1.351031E+002 -4.063029E-001  1.081618E+002
2450.0000     -1.068561E+000 -6.149150E+001 -5.019431E+001  1.258585E+002 -5.020092E+001  1.261132E+002 -3.926235E-001  1.048771E+002
2475.0000     -1.060520E+000 -6.889549E+001 -5.378160E+001  1.191050E+002 -5.390659E+001  1.183780E+002 -3.849223E-001  1.017368E+002
2500.0000     -1.054268E+000 -7.625392E+001 -5.696322E+001  1.125962E+002 -5.707898E+001  1.119598E+002 -3.806575E-001  9.865607E+001
2525.0000     -1.049303E+000 -8.356002E+001 -5.977557E+001  1.058592E+002 -5.984119E+001  1.056066E+002 -3.761916E-001  9.563239E+001
2550.0000     -1.043521E+000 -9.079714E+001 -6.260218E+001  1.000315E+002 -6.258870E+001  9.942998E+001 -3.745663E-001  9.262267E+001
2575.0000     -1.036468E+000 -9.801195E+001 -6.497923E+001  9.374333E+001 -6.524104E+001  9.484448E+001 -3.726038E-001  8.962434E+001
2600.0000     -1.027794E+000 -1.051454E+002 -6.764238E+001  8.705405E+001 -6.814075E+001  8.863042E+001 -3.710324E-001  8.666878E+001
2625.0000     -1.022406E+000 -1.122054E+002 -7.117786E+001  8.173610E+001 -7.099680E+001  8.437775E+001 -3.698744E-001  8.373009E+001
2650.0000     -1.013864E+000 -1.192204E+002 -7.353632E+001  7.894888E+001 -7.440881E+001  7.654118E+001 -3.670610E-001  8.078992E+001
2675.0000     -1.003896E+000 -1.261303E+002 -7.860395E+001  8.019546E+001 -7.947165E+001  7.686497E+001 -3.643182E-001  7.787894E+001
2700.0000     -9.972833E-001 -1.329705E+002 -8.545545E+001  5.843245E+001 -8.930096E+001  7.128424E+001 -3.659961E-001  7.495455E+001
2725.0000     -9.875450E-001 -1.397494E+002 -9.196011E+001 -9.113173E+001 -1.004907E+002 -9.372226E+001 -3.646241E-001  7.206047E+001
2750.0000     -9.722903E-001 -1.464503E+002 -8.686941E+001 -1.111743E+002 -8.359109E+001 -1.367156E+002 -3.626601E-001  6.918540E+001
2775.0000     -9.667681E-001 -1.530076E+002 -7.918290E+001 -1.266138E+002 -8.028131E+001 -1.230292E+002 -3.609032E-001  6.630704E+001
2800.0000     -9.608730E-001 -1.595399E+002 -7.632559E+001 -1.278535E+002 -7.760450E+001 -1.333329E+002 -3.597584E-001  6.343003E+001
2825.0000     -9.501014E-001 -1.659418E+002 -7.591635E+001 -1.376528E+002 -7.574583E+001 -1.355213E+002 -3.562575E-001  6.057786E+001
2850.0000     -9.455463E-001 -1.722680E+002 -7.422736E+001 -1.419177E+002 -7.448729E+001 -1.416522E+002 -3.597025E-001  5.773895E+001
2875.0000     -9.346790E-001 -1.785357E+002 -7.378368E+001 -1.447564E+002 -7.363396E+001 -1.512608E+002 -3.564423E-001  5.485455E+001
2900.0000     -9.271185E-001  1.753447E+002 -7.223709E+001 -1.523917E+002 -7.240665E+001 -1.503265E+002 -3.545770E-001  5.204345E+001
2925.0000     -9.240508E-001  1.692763E+002 -7.167007E+001 -1.557944E+002 -7.113036E+001 -1.571641E+002 -3.576514E-001  4.920732E+001
2950.0000     -9.174285E-001  1.632768E+002 -7.133548E+001  2.069477E+001 -7.153706E+001  2.215954E+001 -3.545487E-001  4.633955E+001
2975.0000     -9.089329E-001  1.574003E+002 -7.091409E+001  1.673008E+001 -7.089520E+001  1.781898E+001 -3.536614E-001  4.354372E+001
3000.0000     -9.048061E-001  1.516057E+002 -6.989931E+001  1.433631E+001 -7.014063E+001  1.311788E+001 -3.565792E-001  4.072874E+001
3025.0000     -9.013985E-001  1.458572E+002 -6.952866E+001  1.092401E+001 -6.973611E+001  1.012237E+001 -3.559556E-001  3.788047E+001
3050.0000     -8.957807E-001  1.402124E+002 -6.917020E+001  6.446821E+000 -6.985355E+001  8.669643E+000 -3.529141E-001  3.509035E+001
3075.0000     -8.940182E-001  1.346298E+002 -6.907477E+001  2.025953E+000 -6.909269E+001  2.358374E+000 -3.569574E-001  3.227276E+001
3100.0000     -8.949450E-001  1.291141E+002 -6.879495E+001  4.174089E-001 -6.888920E+001 -1.617007E-001 -3.544121E-001  2.943690E+001
3125.0000     -8.913925E-001  1.236458E+002 -6.827471E+001 -4.886017E+000 -6.842950E+001 -3.236907E+000 -3.541728E-001  2.666407E+001
3150.0000     -8.959504E-001  1.182441E+002 -6.832280E+001 -6.006827E+000 -6.839471E+001 -4.770248E+000 -3.572041E-001  2.384183E+001
3175.0000     -8.983728E-001  1.128828E+002 -6.831364E+001 -9.732163E+000 -6.814180E+001 -8.510119E+000 -3.587912E-001  2.101917E+001
3200.0000     -9.066483E-001  1.075830E+002 -6.767551E+001 -1.113510E+001 -6.825445E+001 -1.233344E+001 -3.566390E-001  1.823329E+001
3225.0000     -9.172258E-001  1.023147E+002 -6.732598E+001 -1.599879E+001 -6.739730E+001 -1.428676E+001 -3.602099E-001  1.543491E+001
3250.0000     -9.314197E-001  9.713567E+001 -6.743858E+001 -1.769910E+001 -6.739642E+001 -2.088578E+001 -3.628861E-001  1.262524E+001
3275.0000     -9.520295E-001  9.201090E+001 -6.688877E+001 -2.299836E+001 -6.714045E+001 -2.218019E+001 -3.600233E-001  9.839169E+000
3300.0000     -9.730209E-001  8.697052E+001 -6.675272E+001 -2.678461E+001 -6.684424E+001 -2.719312E+001 -3.666978E-001  7.030078E+000
3325.0000     -9.812991E-001  8.201519E+001 -6.688295E+001 -3.119912E+001 -6.695392E+001 -3.247140E+001 -3.679453E-001  4.189892E+000
3350.0000     -9.801833E-001  7.708718E+001 -6.696360E+001 -3.737529E+001 -6.712342E+001 -3.773689E+001 -3.671587E-001  1.392041E+000
3375.0000     -9.643636E-001  7.207922E+001 -6.798826E+001 -4.183504E+001 -6.826247E+001 -4.274881E+001 -3.727401E-001 -1.396206E+000
3400.0000     -9.500753E-001  6.703105E+001 -6.903782E+001 -4.125874E+001 -6.949756E+001 -4.316253E+001 -3.789480E-001 -4.243698E+000
3425.0000     -9.402542E-001  6.190009E+001 -7.093867E+001 -4.087735E+001 -7.079634E+001 -4.065860E+001 -3.767997E-001 -7.078857E+000
3450.0000     -9.337640E-001  5.665864E+001 -7.211018E+001 -2.459001E+001 -7.329831E+001 -2.758796E+001 -3.836914E-001 -9.905176E+000
3475.0000     -9.331377E-001  5.143620E+001 -7.187627E+001  3.809083E+000 -7.268668E+001  6.106339E+000 -3.872395E-001 -1.275537E+001
3500.0000     -9.416866E-001  4.612751E+001 -6.803726E+001  3.483448E+001 -6.833064E+001  3.551843E+001 -3.898638E-001 -1.561362E+001
3525.0000     -9.556933E-001  4.072362E+001 -6.179020E+001  4.368854E+001 -6.180923E+001  4.299752E+001 -3.985473E-001 -1.846388E+001
3550.0000     -9.757791E-001  3.522825E+001 -5.465754E+001  3.203725E+001 -5.461692E+001  3.198715E+001 -4.152500E-001 -2.137958E+001
3575.0000     -1.011952E+000  2.970856E+001 -4.854931E+001 -1.250610E+001 -4.853754E+001 -1.235495E+001 -4.443177E-001 -2.408395E+001
3600.0000     -1.027496E+000  2.397253E+001 -4.945353E+001 -6.123155E+001 -4.945598E+001 -6.133741E+001 -4.299495E-001 -2.676216E+001
3625.0000     -1.057556E+000  1.788160E+001 -5.145835E+001 -8.248144E+001 -5.142794E+001 -8.233808E+001 -4.176587E-001 -2.967761E+001
3650.0000     -1.111047E+000  1.146575E+001 -5.223967E+001 -9.389376E+001 -5.224215E+001 -9.370045E+001 -4.169278E-001 -3.258101E+001
3675.0000     -1.186013E+000  4.483412E+000 -5.203904E+001 -1.031757E+002 -5.208783E+001 -1.028852E+002 -4.235096E-001 -3.547659E+001
3700.0000     -1.294365E+000 -3.281314E+000 -5.103479E+001 -1.121079E+002 -5.106089E+001 -1.119838E+002 -4.276588E-001 -3.840409E+001
3725.0000     -1.483035E+000 -1.241497E+001 -4.912034E+001 -1.218531E+002 -4.913395E+001 -1.223463E+002 -4.295995E-001 -4.130753E+001
3750.0000     -1.845286E+000 -2.428294E+001 -4.615321E+001 -1.350791E+002 -4.612704E+001 -1.347968E+002 -4.407454E-001 -4.422030E+001
3775.0000     -2.796308E+000 -4.233316E+001 -4.187765E+001 -1.531611E+002 -4.187106E+001 -1.531824E+002 -4.454662E-001 -4.718247E+001
3800.0000     -7.095560E+000 -8.002717E+001 -3.637632E+001  1.735287E+002 -3.637036E+001  1.735440E+002 -4.508829E-001 -5.010541E+001
3825.0000     -1.019455E+001  6.682497E+001 -3.347861E+001  1.150738E+002 -3.347421E+001  1.150202E+002 -4.606921E-001 -5.302198E+001
3850.0000     -3.282514E+000  1.459803E+001 -3.507177E+001  7.300114E+001 -3.507100E+001  7.306451E+001 -4.660470E-001 -5.601110E+001
3875.0000     -2.380216E+000 -9.382649E+000 -3.609456E+001  5.093842E+001 -3.608088E+001  5.095366E+001 -4.691856E-001 -5.896579E+001
3900.0000     -2.403574E+000 -2.667910E+001 -3.595692E+001  3.532139E+001 -3.595037E+001  3.530256E+001 -4.799507E-001 -6.192342E+001
3925.0000     -2.855328E+000 -4.319257E+001 -3.494348E+001  2.103205E+001 -3.494415E+001  2.103344E+001 -4.884907E-001 -6.496130E+001
3950.0000     -3.884694E+000 -6.256311E+001 -3.327817E+001  5.517402E+000 -3.326664E+001  5.535908E+000 -4.929625E-001 -6.795757E+001
3975.0000     -6.162093E+000 -9.005841E+001 -3.121458E+001 -1.348071E+001 -3.120827E+001 -1.346045E+001 -5.072371E-001 -7.094338E+001
4000.0000     -1.140732E+001 -1.445674E+002 -2.926091E+001 -3.842903E+001 -2.925197E+001 -3.843626E+001 -5.185971E-001 -7.398841E+001
4025.0000     -1.054385E+001  1.008483E+002 -2.827543E+001 -6.789053E+001 -2.827167E+001 -6.788910E+001 -5.266525E-001 -7.701128E+001
4050.0000     -5.095748E+000  4.700642E+001 -2.856348E+001 -9.506261E+001 -2.856027E+001 -9.504435E+001 -5.330029E-001 -8.001203E+001
4075.0000     -2.864483E+000  1.823472E+001 -2.939438E+001 -1.158523E+002 -2.939068E+001 -1.158582E+002 -5.398002E-001 -8.307231E+001
4100.0000     -1.935304E+000 -1.050602E+000 -3.012556E+001 -1.312873E+002 -3.012094E+001 -1.312950E+002 -5.467185E-001 -8.617580E+001
4125.0000     -1.524150E+000 -1.559187E+001 -3.054975E+001 -1.434659E+002 -3.054457E+001 -1.434899E+002 -5.569228E-001 -8.927256E+001
4150.0000     -1.337578E+000 -2.758038E+001 -3.061374E+001 -1.539436E+002 -3.061582E+001 -1.539084E+002 -5.670727E-001 -9.239365E+001
4175.0000     -1.281640E+000 -3.812601E+001 -3.032533E+001 -1.634917E+002 -3.032016E+001 -1.635295E+002 -5.806853E-001 -9.555584E+001
4200.0000     -1.323079E+000 -4.806846E+001 -2.968616E+001 -1.728374E+002 -2.967564E+001 -1.728837E+002 -5.927262E-001 -9.874269E+001
4225.0000     -1.456206E+000 -5.775813E+001 -2.870392E+001  1.773396E+002 -2.869317E+001  1.773166E+002 -6.105733E-001 -1.019485E+002
4250.0000     -1.692375E+000 -6.746424E+001 -2.738025E+001  1.669665E+002 -2.737055E+001  1.669407E+002 -6.386073E-001 -1.052245E+002
4275.0000     -2.036212E+000 -7.829541E+001 -2.556120E+001  1.555476E+002 -2.554632E+001  1.554817E+002 -6.697616E-001 -1.085565E+002
4300.0000     -2.738455E+000 -9.183038E+001 -2.312173E+001  1.406536E+002 -2.310560E+001  1.405665E+002 -7.276949E-001 -1.119178E+002
4325.0000     -4.634464E+000 -1.099991E+002 -2.017385E+001  1.190106E+002 -2.015764E+001  1.188891E+002 -8.282091E-001 -1.152521E+002
4350.0000     -1.113242E+001 -1.288011E+002 -1.744040E+001  8.652497E+001 -1.742697E+001  8.633728E+001 -9.573033E-001 -1.181172E+002
4375.0000     -1.384256E+001 -3.173708E+001 -1.642027E+001  4.655705E+001 -1.640839E+001  4.635527E+001 -9.952337E-001 -1.205518E+002
4400.0000     -6.498379E+000 -4.318676E+001 -1.682005E+001  1.143804E+001 -1.681239E+001  1.124199E+001 -9.889290E-001 -1.237310E+002
4425.0000     -4.905456E+000 -5.877293E+001 -1.705834E+001 -1.953547E+001 -1.704790E+001 -1.976960E+001 -1.100350E+000 -1.273450E+002
4450.0000     -4.957465E+000 -6.602465E+001 -1.702350E+001 -5.607399E+001 -1.702282E+001 -5.642989E+001 -1.412429E+000 -1.299105E+002
4475.0000     -4.149518E+000 -6.441833E+001 -1.869634E+001 -1.013359E+002 -1.872619E+001 -1.017035E+002 -1.498075E+000 -1.297950E+002
4500.0000     -2.650691E+000 -7.123969E+001 -2.284451E+001 -1.381517E+002 -2.288269E+001 -1.383431E+002 -1.142934E+000 -1.314969E+002
4525.0000     -1.946864E+000 -8.081624E+001 -2.731465E+001 -1.612960E+002 -2.735203E+001 -1.613741E+002 -9.142881E-001 -1.349930E+002
4550.0000     -1.629032E+000 -8.936345E+001 -3.130460E+001 -1.769691E+002 -3.133110E+001 -1.769825E+002 -8.136739E-001 -1.387221E+002
4575.0000     -1.456896E+000 -9.702919E+001 -3.488455E+001  1.711533E+002 -3.491064E+001  1.711256E+002 -7.566110E-001 -1.423591E+002
4600.0000     -1.348950E+000 -1.041772E+002 -3.837683E+001  1.611116E+002 -3.840170E+001  1.609883E+002 -7.321671E-001 -1.458570E+002
4625.0000     -1.286588E+000 -1.110026E+002 -4.237950E+001  1.525468E+002 -4.239328E+001  1.524924E+002 -7.217109E-001 -1.493651E+002
4650.0000     -1.258268E+000 -1.176378E+002 -4.937261E+001  1.540187E+002 -4.934041E+001  1.536753E+002 -7.108010E-001 -1.528710E+002
4675.0000     -1.298463E+000 -1.241834E+002 -4.693638E+001 -1.087099E+002 -4.694818E+001 -1.091115E+002 -7.147011E-001 -1.564366E+002
4700.0000     -1.392840E+000 -1.296088E+002 -3.695442E+001 -1.556215E+002 -3.699726E+001 -1.559981E+002 -8.057464E-001 -1.596848E+002
4725.0000     -1.281639E+000 -1.354799E+002 -3.871406E+001  1.607273E+002 -3.875416E+001  1.606404E+002 -7.781417E-001 -1.626321E+002
4750.0000     -1.266770E+000 -1.418610E+002 -4.116085E+001  1.430687E+002 -4.120006E+001  1.429431E+002 -7.567585E-001 -1.658573E+002
4775.0000     -1.287616E+000 -1.483202E+002 -4.303249E+001  1.323639E+002 -4.308495E+001  1.323122E+002 -7.550743E-001 -1.691728E+002
4800.0000     -1.326208E+000 -1.548829E+002 -4.453132E+001  1.239453E+002 -4.454340E+001  1.239549E+002 -7.475592E-001 -1.725070E+002
4825.0000     -1.391080E+000 -1.615654E+002 -4.583264E+001  1.167082E+002 -4.587150E+001  1.165402E+002 -7.441902E-001 -1.757696E+002
4850.0000     -1.488098E+000 -1.686127E+002 -4.703313E+001  1.096933E+002 -4.704328E+001  1.097541E+002 -7.502627E-001 -1.790552E+002
4875.0000     -1.613675E+000 -1.761058E+002 -4.812910E+001  1.025066E+002 -4.812315E+001  1.026210E+002 -7.481152E-001  1.776178E+002
4900.0000     -1.812896E+000  1.758335E+002 -4.932270E+001  9.361624E+001 -4.933820E+001  9.373162E+001 -7.492497E-001  1.744050E+002
4925.0000     -2.127499E+000  1.667413E+002 -5.272618E+001  7.496139E+001 -5.279460E+001  7.447282E+001 -7.597246E-001  1.711805E+002
4950.0000     -2.602508E+000  1.562004E+002 -5.469656E+001  1.052160E+002 -5.473329E+001  1.044922E+002 -7.391673E-001  1.678548E+002
4975.0000     -3.495507E+000  1.432908E+002 -5.595736E+001  1.106612E+002 -5.601426E+001  1.103515E+002 -7.449625E-001  1.646175E+002
5000.0000     -5.354194E+000  1.262218E+002 -5.606165E+001  1.373259E+002 -5.613387E+001  1.377432E+002 -7.550924E-001  1.613268E+002
5025.0000     -1.011979E+001  1.021810E+002 -5.126079E+001  1.539342E+002 -5.129476E+001  1.538929E+002 -7.455469E-001  1.580420E+002
5050.0000     -2.766998E+001 -7.004027E+001 -4.658813E+001  1.420640E+002 -4.656440E+001  1.423009E+002 -7.488646E-001  1.548520E+002
5075.0000     -8.297134E+000 -1.281557E+002 -4.389612E+001  1.201110E+002 -4.389342E+001  1.200748E+002 -7.590400E-001  1.515722E+002
5100.0000     -4.298559E+000 -1.535932E+002 -4.253516E+001  9.814606E+001 -4.255189E+001  9.834052E+001 -7.482734E-001  1.482966E+002
5125.0000     -2.857218E+000 -1.724487E+002 -4.133009E+001  7.655545E+001 -4.135677E+001  7.643287E+001 -7.519230E-001  1.451223E+002
5150.0000     -2.644451E+000  1.734426E+002 -4.017981E+001  3.937551E+001 -4.018776E+001  3.942753E+001 -7.669864E-001  1.418553E+002
5175.0000     -2.158261E+000  1.667598E+002 -4.807553E+001  1.353687E+000 -4.809001E+001  1.265172E+000 -7.552605E-001  1.386075E+002
5200.0000     -1.676200E+000  1.561807E+002 -4.976368E+001  4.001016E+001 -4.979175E+001  3.971100E+001 -7.529659E-001  1.354467E+002
5225.0000     -1.548775E+000  1.465050E+002 -4.716126E+001  3.910265E+001 -4.715789E+001  3.936129E+001 -7.642441E-001  1.322076E+002
5250.0000     -1.527246E+000  1.375513E+002 -4.546455E+001  2.716761E+001 -4.545601E+001  2.702844E+001 -7.551283E-001  1.289297E+002
5275.0000     -1.579633E+000  1.292589E+002 -4.419204E+001  9.867488E+000 -4.421375E+001  9.903522E+000 -7.546880E-001  1.257625E+002
5300.0000     -1.698378E+000  1.215313E+002 -4.349298E+001 -1.262977E+001 -4.350327E+001 -1.259366E+001 -7.678983E-001  1.225598E+002
5325.0000     -1.800848E+000  1.143011E+002 -4.381835E+001 -3.878400E+001 -4.382722E+001 -3.901057E+001 -7.630771E-001  1.193345E+002
5350.0000     -1.829386E+000  1.073380E+002 -4.530536E+001 -6.400838E+001 -4.534061E+001 -6.407587E+001 -7.571253E-001  1.161884E+002
5375.0000     -1.831660E+000  1.000178E+002 -4.748116E+001 -8.463052E+001 -4.746937E+001 -8.464244E+001 -7.609048E-001  1.129981E+002
5400.0000     -1.838613E+000  9.224396E+001 -4.983799E+001 -1.006129E+002 -4.982352E+001 -1.009090E+002 -7.519244E-001  1.097534E+002
5425.0000     -1.874977E+000  8.425134E+001 -5.204678E+001 -1.144779E+002 -5.208366E+001 -1.144975E+002 -7.444996E-001  1.065912E+002
5450.0000     -1.935960E+000  7.603088E+001 -5.415211E+001 -1.260198E+002 -5.414952E+001 -1.263466E+002 -7.515399E-001  1.034148E+002
5475.0000     -2.019372E+000  6.757230E+001 -5.608940E+001 -1.367846E+002 -5.603048E+001 -1.371190E+002 -7.448921E-001  1.001827E+002
5500.0000     -2.119122E+000  5.891256E+001 -5.782071E+001 -1.479819E+002 -5.777767E+001 -1.476998E+002 -7.372936E-001  9.702472E+001
5525.0000     -2.234360E+000  4.997634E+001 -5.932084E+001 -1.586172E+002 -5.936029E+001 -1.586019E+002 -7.398581E-001  9.385454E+001
5550.0000     -2.364956E+000  4.075504E+001 -6.093993E+001 -1.695540E+002 -6.081123E+001 -1.702935E+002 -7.377426E-001  9.067403E+001
5575.0000     -2.508537E+000  3.122511E+001 -6.219681E+001  1.786318E+002 -6.226788E+001  1.780934E+002 -7.303603E-001  8.752148E+001
5600.0000     -2.662091E+000  2.132949E+001 -6.386213E+001  1.663147E+002 -6.394534E+001  1.657882E+002 -7.321573E-001  8.436076E+001
5625.0000     -2.822125E+000  1.107044E+001 -6.599442E+001  1.529290E+002 -6.586232E+001  1.539622E+002 -7.300072E-001  8.122205E+001
5650.0000     -2.997248E+000  4.521967E-001 -7.016183E+001  1.277241E+002 -6.945722E+001  1.281875E+002 -7.279756E-001  7.807235E+001
5675.0000     -3.173855E+000 -1.067053E+001 -7.022218E+001 -1.500995E+000 -7.027597E+001  8.589529E-001 -7.375098E-001  7.489567E+001
5700.0000     -3.353399E+000 -2.219818E+001 -6.027658E+001 -1.261705E+002 -6.040071E+001 -1.259195E+002 -7.413445E-001  7.201133E+001
5725.0000     -3.545623E+000 -3.416458E+001 -6.252850E+001 -1.368853E+002 -6.256915E+001 -1.369328E+002 -7.225720E-001  6.887605E+001
5750.0000     -3.739848E+000 -4.667644E+001 -5.976476E+001 -1.260288E+002 -5.992135E+001 -1.263708E+002 -7.212819E-001  6.573670E+001
5775.0000     -3.954063E+000 -5.966282E+001 -5.556283E+001 -1.252372E+002 -5.555894E+001 -1.244072E+002 -7.156019E-001  6.261883E+001
5800.0000     -4.236062E+000 -7.330171E+001 -5.082119E+001 -1.306637E+002 -5.087402E+001 -1.305989E+002 -7.143375E-001  5.953394E+001
5825.0000     -4.668021E+000 -8.775624E+001 -4.597089E+001 -1.433540E+002 -4.599075E+001 -1.430994E+002 -7.172603E-001  5.644633E+001
5850.0000     -5.577156E+000 -1.024901E+002 -4.088448E+001 -1.637571E+002 -4.090784E+001 -1.639857E+002 -7.139350E-001  5.335012E+001
5875.0000     -7.562700E+000 -1.104216E+002 -3.641638E+001  1.600515E+002 -3.643100E+001  1.600452E+002 -7.176785E-001  5.029808E+001
5900.0000     -7.314812E+000 -1.031225E+002 -3.528774E+001  1.148367E+002 -3.531163E+001  1.147982E+002 -7.186652E-001  4.729168E+001
5925.0000     -5.521008E+000 -1.119281E+002 -3.663438E+001  8.340317E+001 -3.665408E+001  8.333616E+001 -7.121068E-001  4.425696E+001
5950.0000     -4.651152E+000 -1.255046E+002 -3.799831E+001  6.405028E+001 -3.801721E+001  6.398824E+001 -7.070348E-001  4.117941E+001
5975.0000     -4.189893E+000 -1.386782E+002 -3.895414E+001  5.024623E+001 -3.895788E+001  5.029552E+001 -7.019723E-001  3.814095E+001
6000.0000     -3.889689E+000 -1.510603E+002 -3.958938E+001  3.918723E+001 -3.962155E+001  3.914174E+001 -7.032493E-001  3.509978E+001
