! Mini-Circuits								
! S2P DATA File Format								
! Type: BAND PASS FILTER								
! Model: ZABP-587-S+								
! All S Parameters are in MAG PHASE format								
! TEST CONDITIONS: INPUT POWER = 0 dBm @ Temperature = -40deg C														
!								
# MHz S DB R 50							
!								
!FREQ   MAG(S11)PHS(S11) MAG(S21)PHS(S21)MAG(S12)PHS(S12)MAG(S22)PHS(S22)
    .5000     -7.651242E-004 -1.982857E-001 -1.081516E+002  9.363572E+001 -9.736714E+001  1.223659E+002  2.941561E-003 -3.692297E-001
   1.0000     -1.687739E-003 -3.961949E-001 -9.658709E+001  1.297128E+002 -9.563642E+001  1.722624E+002 -2.845082E-003 -7.831694E-001
   1.5000      2.666148E-004 -5.703436E-001 -9.607886E+001  1.771258E+001 -1.097003E+002  5.522634E+001 -3.555339E-003 -1.162859E+000
   2.0000     -2.416743E-003 -7.721608E-001 -9.944255E+001  1.093299E+002 -9.997523E+001 -1.536623E+002 -3.003733E-003 -1.535904E+000
   2.5000     -1.169494E-003 -9.700726E-001 -1.048983E+002  4.624383E+000 -1.052264E+002 -1.464167E+002 -2.117293E-003 -1.919505E+000
   3.0000      1.331793E-004 -1.161455E+000 -9.673174E+001  1.478108E+002 -9.774892E+001 -7.974341E+001 -1.611150E-003 -2.269331E+000
   3.5000     -2.117373E-003 -1.347787E+000 -1.063624E+002 -3.231062E+001 -9.632748E+001  1.488690E+002 -1.562277E-003 -2.662633E+000
   4.0000      8.973901E-005 -1.543718E+000 -1.014747E+002  8.253402E+001 -1.025755E+002  1.449868E+002 -9.063898E-004 -3.021159E+000
   4.5000     -6.883923E-004 -1.721829E+000 -1.053040E+002  1.466257E+002 -1.097726E+002 -1.417664E+001 -1.316280E-003 -3.409518E+000
   5.0000     -6.409453E-004 -1.934851E+000 -1.069939E+002  5.957996E+001 -9.742000E+001  8.351650E+001 -7.803217E-004 -3.777636E+000
  10.0000     -2.215014E-003 -3.847396E+000 -1.012716E+002  1.379671E+002 -9.958009E+001  8.756926E+001 -2.079747E-003 -7.560176E+000
  15.0000     -1.856791E-003 -5.763355E+000 -9.445193E+001  8.774918E+001 -9.518376E+001  1.024306E+002 -3.666409E-003 -1.131981E+001
  20.0000     -4.132580E-003 -7.679039E+000 -9.219522E+001  9.182098E+001 -9.314919E+001  1.063923E+002 -7.920051E-003 -1.509853E+001
  25.0000     -1.819060E-003 -9.610208E+000 -9.215733E+001  9.558301E+001 -9.204481E+001  1.030250E+002 -6.711902E-003 -1.886423E+001
  30.0000     -2.217699E-003 -1.151732E+001 -8.869108E+001  1.014487E+002 -9.064046E+001  6.811364E+001 -9.513246E-003 -2.265293E+001
  35.0000     -3.351885E-003 -1.342864E+001 -9.019588E+001  8.685565E+001 -8.464855E+001  6.802232E+001 -1.126047E-002 -2.643705E+001
  40.0000     -2.642736E-003 -1.533560E+001 -8.640946E+001  7.376643E+001 -8.729799E+001  6.280344E+001 -1.318932E-002 -3.023559E+001
  45.0000     -4.354783E-003 -1.724321E+001 -8.522156E+001  7.320650E+001 -8.783186E+001  6.540910E+001 -1.628727E-002 -3.403962E+001
  50.0000     -2.934483E-003 -1.914451E+001 -8.405875E+001  5.891156E+001 -8.438171E+001  5.139415E+001 -1.624355E-002 -3.787125E+001
  55.0000     -5.146018E-003 -2.105395E+001 -8.280144E+001  5.886633E+001 -8.196573E+001  5.254577E+001 -2.023754E-002 -4.171027E+001
  60.0000     -4.219543E-003 -2.295299E+001 -8.287324E+001  5.059569E+001 -8.364342E+001  5.989459E+001 -2.509592E-002 -4.557493E+001
  65.0000     -5.677024E-003 -2.484927E+001 -8.097594E+001  5.373397E+001 -8.145126E+001  4.643427E+001 -2.552395E-002 -4.946325E+001
  70.0000     -5.424581E-003 -2.674423E+001 -8.130936E+001  5.608797E+001 -8.133257E+001  4.875121E+001 -2.815102E-002 -5.336517E+001
  75.0000     -5.927330E-003 -2.864222E+001 -7.980796E+001  5.228337E+001 -8.089162E+001  4.202255E+001 -3.414261E-002 -5.731213E+001
  80.0000     -6.387172E-003 -3.052935E+001 -7.822547E+001  3.850164E+001 -7.931788E+001  4.442322E+001 -4.036337E-002 -6.127404E+001
  85.0000     -6.310597E-003 -3.243158E+001 -7.833856E+001  3.712238E+001 -7.924361E+001  4.226608E+001 -4.366749E-002 -6.528238E+001
  90.0000     -7.664809E-003 -3.432240E+001 -7.839050E+001  4.199016E+001 -7.727069E+001  4.210987E+001 -4.747500E-002 -6.932087E+001
  95.0000     -7.878339E-003 -3.621347E+001 -7.683604E+001  3.702187E+001 -7.648171E+001  3.238272E+001 -5.601877E-002 -7.340014E+001
 100.0000     -8.769077E-003 -3.810159E+001 -7.637025E+001  3.508583E+001 -7.607980E+001  3.373247E+001 -6.174378E-002 -7.751653E+001
 105.0000     -9.663798E-003 -4.000269E+001 -7.598677E+001  3.240489E+001 -7.513194E+001  2.534960E+001 -6.952682E-002 -8.168922E+001
 110.0000     -1.120578E-002 -4.190521E+001 -7.413789E+001  2.721367E+001 -7.401859E+001  2.515911E+001 -7.679194E-002 -8.591433E+001
 115.0000     -1.352660E-002 -4.380797E+001 -7.319529E+001  2.248720E+001 -7.367328E+001  2.214499E+001 -8.515105E-002 -9.018054E+001
 120.0000     -1.403062E-002 -4.571457E+001 -7.203922E+001  1.821104E+001 -7.241261E+001  1.897235E+001 -9.572177E-002 -9.451278E+001
 125.0000     -1.482183E-002 -4.763865E+001 -7.132394E+001  1.490322E+001 -7.153265E+001  1.488272E+001 -1.054119E-001 -9.890653E+001
 130.0000     -1.612265E-002 -4.955857E+001 -7.041685E+001  1.088443E+001 -7.011013E+001  1.306482E+001 -1.150912E-001 -1.033459E+002
 135.0000     -1.818665E-002 -5.147971E+001 -6.935037E+001  7.739292E+000 -6.945098E+001  8.993286E+000 -1.264309E-001 -1.078384E+002
 140.0000     -2.170617E-002 -5.341600E+001 -6.817761E+001  5.654604E+000 -6.821378E+001  6.750321E+000 -1.370184E-001 -1.124053E+002
 145.0000     -2.275874E-002 -5.537501E+001 -6.714314E+001  2.731502E+000 -6.700485E+001  2.485591E+000 -1.504144E-001 -1.170199E+002
 150.0000     -2.216934E-002 -5.733576E+001 -6.612160E+001 -8.168500E-001 -6.606905E+001 -2.927075E-001 -1.632517E-001 -1.217112E+002
 155.0000     -2.501692E-002 -5.929678E+001 -6.506379E+001 -3.412799E+000 -6.515062E+001 -4.063079E+000 -1.752759E-001 -1.264325E+002
 160.0000     -2.719341E-002 -6.128476E+001 -6.395805E+001 -7.187455E+000 -6.408425E+001 -7.564009E+000 -1.888767E-001 -1.312341E+002
 165.0000     -3.151501E-002 -6.329104E+001 -6.303570E+001 -1.032751E+001 -6.291941E+001 -1.045844E+001 -2.028798E-001 -1.360776E+002
 170.0000     -3.289109E-002 -6.530844E+001 -6.181774E+001 -1.435150E+001 -6.188546E+001 -1.524497E+001 -2.156026E-001 -1.409559E+002
 175.0000     -3.530754E-002 -6.733329E+001 -6.084044E+001 -1.798496E+001 -6.091833E+001 -1.765693E+001 -2.293630E-001 -1.459092E+002
 180.0000     -3.904471E-002 -6.939301E+001 -5.983313E+001 -2.131875E+001 -5.983020E+001 -2.155354E+001 -2.425054E-001 -1.508809E+002
 185.0000     -4.092789E-002 -7.147190E+001 -5.889428E+001 -2.505063E+001 -5.880195E+001 -2.532729E+001 -2.549706E-001 -1.559086E+002
 190.0000     -4.597336E-002 -7.357242E+001 -5.776522E+001 -2.895276E+001 -5.772589E+001 -2.881195E+001 -2.679891E-001 -1.609591E+002
 195.0000     -4.840788E-002 -7.568080E+001 -5.679279E+001 -3.240296E+001 -5.679494E+001 -3.209961E+001 -2.801302E-001 -1.660511E+002
 200.0000     -5.226159E-002 -7.782368E+001 -5.579913E+001 -3.612338E+001 -5.582567E+001 -3.579084E+001 -2.920892E-001 -1.711463E+002
 205.0000     -5.720057E-002 -7.998888E+001 -5.487893E+001 -3.947380E+001 -5.484631E+001 -3.969315E+001 -3.038357E-001 -1.762624E+002
 210.0000     -6.237264E-002 -8.218172E+001 -5.388305E+001 -4.330990E+001 -5.385412E+001 -4.317258E+001 -3.130445E-001  1.786313E+002
 215.0000     -6.488610E-002 -8.439412E+001 -5.292999E+001 -4.694291E+001 -5.294802E+001 -4.705103E+001 -3.241113E-001  1.735049E+002
 220.0000     -6.846540E-002 -8.664521E+001 -5.200943E+001 -5.066923E+001 -5.204240E+001 -5.047960E+001 -3.331841E-001  1.684070E+002
 225.0000     -7.172766E-002 -8.891768E+001 -5.111401E+001 -5.408523E+001 -5.110429E+001 -5.400284E+001 -3.421248E-001  1.633034E+002
 230.0000     -7.828159E-002 -9.120647E+001 -5.024914E+001 -5.794221E+001 -5.025140E+001 -5.784640E+001 -3.479500E-001  1.582173E+002
 235.0000     -8.214771E-002 -9.354147E+001 -4.939631E+001 -6.167886E+001 -4.936361E+001 -6.170712E+001 -3.555478E-001  1.531702E+002
 240.0000     -8.641070E-002 -9.590756E+001 -4.854563E+001 -6.517212E+001 -4.849582E+001 -6.526144E+001 -3.601335E-001  1.481297E+002
 245.0000     -9.231812E-002 -9.829114E+001 -4.770874E+001 -6.876881E+001 -4.772012E+001 -6.869377E+001 -3.643607E-001  1.431506E+002
 250.0000     -9.655581E-002 -1.007233E+002 -4.688998E+001 -7.250061E+001 -4.687892E+001 -7.262178E+001 -3.673364E-001  1.381882E+002
 255.0000     -1.020085E-001 -1.031887E+002 -4.607215E+001 -7.622689E+001 -4.608207E+001 -7.604051E+001 -3.674847E-001  1.332636E+002
 260.0000     -1.084893E-001 -1.056851E+002 -4.530389E+001 -7.997167E+001 -4.531626E+001 -7.986625E+001 -3.705363E-001  1.283742E+002
 265.0000     -1.129921E-001 -1.082267E+002 -4.452982E+001 -8.353685E+001 -4.453037E+001 -8.344728E+001 -3.693180E-001  1.235342E+002
 270.0000     -1.183828E-001 -1.108018E+002 -4.379917E+001 -8.709443E+001 -4.379358E+001 -8.710956E+001 -3.707908E-001  1.187387E+002
 275.0000     -1.269921E-001 -1.134205E+002 -4.305452E+001 -9.090586E+001 -4.305141E+001 -9.070696E+001 -3.695262E-001  1.139786E+002
 280.0000     -1.315237E-001 -1.160756E+002 -4.231831E+001 -9.454141E+001 -4.233773E+001 -9.439231E+001 -3.682740E-001  1.092658E+002
 285.0000     -1.378336E-001 -1.187801E+002 -4.162951E+001 -9.813325E+001 -4.162827E+001 -9.811449E+001 -3.658496E-001  1.045905E+002
 290.0000     -1.457842E-001 -1.215555E+002 -4.094475E+001 -1.018283E+002 -4.094300E+001 -1.018410E+002 -3.642267E-001  9.994804E+001
 295.0000     -1.528431E-001 -1.243357E+002 -4.027362E+001 -1.054577E+002 -4.026748E+001 -1.055325E+002 -3.614790E-001  9.534180E+001
 300.0000     -1.589820E-001 -1.271961E+002 -3.960005E+001 -1.091496E+002 -3.960653E+001 -1.091575E+002 -3.579476E-001  9.074754E+001
 305.0000     -1.657869E-001 -1.301060E+002 -3.896645E+001 -1.129159E+002 -3.895807E+001 -1.129437E+002 -3.540438E-001  8.619045E+001
 310.0000     -1.744402E-001 -1.330609E+002 -3.833618E+001 -1.165794E+002 -3.834466E+001 -1.166075E+002 -3.500885E-001  8.164664E+001
 315.0000     -1.824373E-001 -1.361030E+002 -3.772525E+001 -1.203773E+002 -3.771573E+001 -1.203772E+002 -3.459367E-001  7.712037E+001
 320.0000     -1.902435E-001 -1.391992E+002 -3.712887E+001 -1.241010E+002 -3.713367E+001 -1.241119E+002 -3.433813E-001  7.260252E+001
 325.0000     -1.999849E-001 -1.423786E+002 -3.654416E+001 -1.279951E+002 -3.655498E+001 -1.279588E+002 -3.389572E-001  6.807665E+001
 330.0000     -2.113357E-001 -1.456337E+002 -3.599921E+001 -1.318223E+002 -3.599194E+001 -1.318213E+002 -3.347285E-001  6.355272E+001
 335.0000     -2.191841E-001 -1.489750E+002 -3.545935E+001 -1.356770E+002 -3.545516E+001 -1.356902E+002 -3.322301E-001  5.903065E+001
 340.0000     -2.288003E-001 -1.524045E+002 -3.495024E+001 -1.396586E+002 -3.496083E+001 -1.396344E+002 -3.287893E-001  5.446907E+001
 345.0000     -2.393080E-001 -1.559713E+002 -3.446802E+001 -1.437046E+002 -3.446505E+001 -1.437010E+002 -3.275453E-001  4.986449E+001
 350.0000     -2.516867E-001 -1.596210E+002 -3.402284E+001 -1.477758E+002 -3.402281E+001 -1.477999E+002 -3.248675E-001  4.522233E+001
 355.0000     -2.614477E-001 -1.634117E+002 -3.361433E+001 -1.519445E+002 -3.361317E+001 -1.519640E+002 -3.227970E-001  4.053387E+001
 360.0000     -2.749598E-001 -1.673526E+002 -3.325303E+001 -1.561934E+002 -3.325302E+001 -1.562000E+002 -3.209445E-001  3.578614E+001
 365.0000     -2.887157E-001 -1.714476E+002 -3.294873E+001 -1.605380E+002 -3.294564E+001 -1.605650E+002 -3.217987E-001  3.093803E+001
 370.0000     -3.038851E-001 -1.757395E+002 -3.271556E+001 -1.650265E+002 -3.271228E+001 -1.650236E+002 -3.238068E-001  2.598805E+001
 375.0000     -3.202336E-001  1.797751E+002 -3.256630E+001 -1.695933E+002 -3.256408E+001 -1.696036E+002 -3.272352E-001  2.092043E+001
 376.0000     -3.249266E-001  1.788527E+002 -3.255370E+001 -1.705432E+002 -3.254945E+001 -1.705192E+002 -3.275270E-001  1.988132E+001
 377.0000     -3.284629E-001  1.779045E+002 -3.253518E+001 -1.714676E+002 -3.253730E+001 -1.714807E+002 -3.287404E-001  1.883806E+001
 378.0000     -3.316169E-001  1.769605E+002 -3.252898E+001 -1.723951E+002 -3.253327E+001 -1.724192E+002 -3.283118E-001  1.780481E+001
 379.0000     -3.373890E-001  1.760025E+002 -3.253483E+001 -1.733395E+002 -3.252850E+001 -1.733141E+002 -3.282706E-001  1.676242E+001
 380.0000     -3.402465E-001  1.750350E+002 -3.253068E+001 -1.743349E+002 -3.253548E+001 -1.743075E+002 -3.313662E-001  1.569890E+001
 381.0000     -3.435418E-001  1.740610E+002 -3.254649E+001 -1.752321E+002 -3.255103E+001 -1.752388E+002 -3.325157E-001  1.464477E+001
 382.0000     -3.475863E-001  1.730605E+002 -3.256237E+001 -1.762307E+002 -3.256234E+001 -1.762189E+002 -3.324850E-001  1.356672E+001
 383.0000     -3.513996E-001  1.720456E+002 -3.258994E+001 -1.772219E+002 -3.258597E+001 -1.771636E+002 -3.322473E-001  1.248803E+001
 384.0000     -3.547488E-001  1.710446E+002 -3.261698E+001 -1.781268E+002 -3.261930E+001 -1.781218E+002 -3.347282E-001  1.140443E+001
 385.0000     -3.592750E-001  1.700042E+002 -3.265468E+001 -1.791357E+002 -3.266364E+001 -1.791476E+002 -3.363064E-001  1.030306E+001
 386.0000     -3.628036E-001  1.689686E+002 -3.270652E+001  1.798985E+002 -3.270901E+001  1.798922E+002 -3.378147E-001  9.212739E+000
 387.0000     -3.691645E-001  1.679128E+002 -3.276714E+001  1.789024E+002 -3.276937E+001  1.789178E+002 -3.402638E-001  8.096945E+000
 388.0000     -3.723212E-001  1.668397E+002 -3.283530E+001  1.779381E+002 -3.283648E+001  1.779257E+002 -3.406856E-001  6.981103E+000
 389.0000     -3.779562E-001  1.657474E+002 -3.291185E+001  1.768929E+002 -3.291723E+001  1.769848E+002 -3.440842E-001  5.847651E+000
 390.0000     -3.816477E-001  1.646532E+002 -3.300276E+001  1.758959E+002 -3.300200E+001  1.759261E+002 -3.449434E-001  4.711843E+000
 391.0000     -3.865764E-001  1.635399E+002 -3.310855E+001  1.749267E+002 -3.310317E+001  1.749578E+002 -3.478879E-001  3.554709E+000
 392.0000     -3.923899E-001  1.624013E+002 -3.321783E+001  1.739572E+002 -3.321326E+001  1.739566E+002 -3.488643E-001  2.399974E+000
 393.0000     -3.972266E-001  1.612628E+002 -3.334835E+001  1.729713E+002 -3.334957E+001  1.729590E+002 -3.499760E-001  1.234421E+000
 394.0000     -4.038424E-001  1.600987E+002 -3.349905E+001  1.719735E+002 -3.350290E+001  1.719809E+002 -3.529063E-001  6.543446E-002
 395.0000     -4.085974E-001  1.589036E+002 -3.366078E+001  1.710007E+002 -3.366281E+001  1.709421E+002 -3.557189E-001 -1.137313E+000
 396.0000     -4.131791E-001  1.577049E+002 -3.384651E+001  1.699570E+002 -3.383629E+001  1.699686E+002 -3.590669E-001 -2.334409E+000
 397.0000     -4.202974E-001  1.564872E+002 -3.405089E+001  1.690179E+002 -3.404905E+001  1.690083E+002 -3.623130E-001 -3.552320E+000
 398.0000     -4.256359E-001  1.552402E+002 -3.426986E+001  1.680440E+002 -3.428068E+001  1.680876E+002 -3.662378E-001 -4.775349E+000
 399.0000     -4.304695E-001  1.539831E+002 -3.452825E+001  1.671283E+002 -3.453173E+001  1.671244E+002 -3.676773E-001 -6.025692E+000
 400.0000     -4.371867E-001  1.526982E+002 -3.481178E+001  1.662306E+002 -3.481480E+001  1.661949E+002 -3.707532E-001 -7.283037E+000
 401.0000     -4.444054E-001  1.513921E+002 -3.513376E+001  1.653029E+002 -3.513747E+001  1.653136E+002 -3.750381E-001 -8.554756E+000
 402.0000     -4.514895E-001  1.500540E+002 -3.548712E+001  1.644939E+002 -3.549665E+001  1.644852E+002 -3.787575E-001 -9.831001E+000
 403.0000     -4.586481E-001  1.487003E+002 -3.589836E+001  1.636405E+002 -3.588422E+001  1.636652E+002 -3.825830E-001 -1.113929E+001
 404.0000     -4.660706E-001  1.473054E+002 -3.634269E+001  1.629169E+002 -3.634291E+001  1.629412E+002 -3.867650E-001 -1.245293E+001
 405.0000     -4.741259E-001  1.459025E+002 -3.685237E+001  1.622984E+002 -3.685239E+001  1.622790E+002 -3.900381E-001 -1.378433E+001
 406.0000     -4.817454E-001  1.444671E+002 -3.743855E+001  1.617689E+002 -3.743821E+001  1.617967E+002 -3.968001E-001 -1.514110E+001
 407.0000     -4.898839E-001  1.430103E+002 -3.809222E+001  1.614234E+002 -3.808827E+001  1.613861E+002 -4.005869E-001 -1.650863E+001
 408.0000     -4.962975E-001  1.415195E+002 -3.886557E+001  1.613511E+002 -3.886714E+001  1.613405E+002 -4.069914E-001 -1.790074E+001
 409.0000     -5.080236E-001  1.399832E+002 -3.974450E+001  1.616827E+002 -3.975840E+001  1.615972E+002 -4.116932E-001 -1.930472E+001
 410.0000     -5.159496E-001  1.384023E+002 -4.080824E+001  1.623161E+002 -4.080872E+001  1.623222E+002 -4.157113E-001 -2.072905E+001
 411.0000     -5.267967E-001  1.368219E+002 -4.203762E+001  1.639397E+002 -4.206654E+001  1.639825E+002 -4.236655E-001 -2.218251E+001
 412.0000     -5.338289E-001  1.351878E+002 -4.358150E+001  1.669489E+002 -4.357175E+001  1.669658E+002 -4.289138E-001 -2.366098E+001
 413.0000     -5.467884E-001  1.335044E+002 -4.545745E+001  1.725384E+002 -4.544290E+001  1.726051E+002 -4.368203E-001 -2.514836E+001
 414.0000     -5.575678E-001  1.317945E+002 -4.764125E+001 -1.770685E+002 -4.768962E+001 -1.771022E+002 -4.452584E-001 -2.668223E+001
 415.0000     -5.686320E-001  1.300351E+002 -4.985853E+001 -1.571895E+002 -4.989814E+001 -1.574932E+002 -4.525692E-001 -2.822361E+001
 416.0000     -5.822177E-001  1.282369E+002 -5.049590E+001 -1.267483E+002 -5.052038E+001 -1.269937E+002 -4.625490E-001 -2.980766E+001
 417.0000     -5.939708E-001  1.263867E+002 -4.856321E+001 -9.963419E+001 -4.855622E+001 -9.945921E+001 -4.683973E-001 -3.140667E+001
 418.0000     -6.081547E-001  1.244824E+002 -4.578136E+001 -8.413131E+001 -4.580190E+001 -8.428838E+001 -4.785666E-001 -3.304592E+001
 419.0000     -6.238403E-001  1.225416E+002 -4.325324E+001 -7.612848E+001 -4.325239E+001 -7.622060E+001 -4.873755E-001 -3.470343E+001
 420.0000     -6.376644E-001  1.205135E+002 -4.108470E+001 -7.207984E+001 -4.110362E+001 -7.214946E+001 -4.985900E-001 -3.640961E+001
 421.0000     -6.550406E-001  1.184436E+002 -3.924137E+001 -7.003326E+001 -3.925230E+001 -7.006271E+001 -5.096610E-001 -3.814689E+001
 422.0000     -6.698515E-001  1.163117E+002 -3.763745E+001 -6.910007E+001 -3.765609E+001 -6.911682E+001 -5.211626E-001 -3.991970E+001
 423.0000     -6.886396E-001  1.141183E+002 -3.622434E+001 -6.906439E+001 -3.622598E+001 -6.906805E+001 -5.332922E-001 -4.172942E+001
 424.0000     -7.110472E-001  1.118426E+002 -3.497441E+001 -6.948930E+001 -3.498223E+001 -6.942485E+001 -5.476098E-001 -4.357530E+001
 425.0000     -7.294621E-001  1.094932E+002 -3.383537E+001 -7.027113E+001 -3.383191E+001 -7.019749E+001 -5.600577E-001 -4.547145E+001
 426.0000     -7.511333E-001  1.070721E+002 -3.281002E+001 -7.128490E+001 -3.281231E+001 -7.133094E+001 -5.773243E-001 -4.741755E+001
 427.0000     -7.743230E-001  1.045477E+002 -3.186810E+001 -7.252554E+001 -3.187453E+001 -7.258062E+001 -5.922939E-001 -4.941245E+001
 428.0000     -7.993478E-001  1.019395E+002 -3.101632E+001 -7.403470E+001 -3.102088E+001 -7.401447E+001 -6.106606E-001 -5.146320E+001
 429.0000     -8.259752E-001  9.923270E+001 -3.023326E+001 -7.563264E+001 -3.023742E+001 -7.559197E+001 -6.293954E-001 -5.354535E+001
 430.0000     -8.549747E-001  9.641286E+001 -2.952071E+001 -7.734410E+001 -2.952209E+001 -7.735349E+001 -6.482080E-001 -5.571851E+001
 431.0000     -8.868990E-001  9.348463E+001 -2.887510E+001 -7.917632E+001 -2.887675E+001 -7.916611E+001 -6.710863E-001 -5.793570E+001
 432.0000     -9.221374E-001  9.042422E+001 -2.829469E+001 -8.106797E+001 -2.829787E+001 -8.107822E+001 -6.930758E-001 -6.022193E+001
 433.0000     -9.566390E-001  8.724390E+001 -2.778061E+001 -8.306686E+001 -2.778122E+001 -8.305406E+001 -7.193656E-001 -6.258887E+001
 434.0000     -9.972899E-001  8.391193E+001 -2.733974E+001 -8.510305E+001 -2.733785E+001 -8.508995E+001 -7.452671E-001 -6.503471E+001
 435.0000     -1.040330E+000  8.040546E+001 -2.697610E+001 -8.718392E+001 -2.697681E+001 -8.717648E+001 -7.733656E-001 -6.755677E+001
 436.0000     -1.086835E+000  7.674737E+001 -2.669733E+001 -8.921083E+001 -2.669723E+001 -8.919204E+001 -8.033770E-001 -7.017297E+001
 437.0000     -1.136280E+000  7.290031E+001 -2.651370E+001 -9.118621E+001 -2.651963E+001 -9.118467E+001 -8.384358E-001 -7.288739E+001
 438.0000     -1.192804E+000  6.883115E+001 -2.645250E+001 -9.302596E+001 -2.645458E+001 -9.302545E+001 -8.737326E-001 -7.572174E+001
 439.0000     -1.253102E+000  6.454626E+001 -2.652961E+001 -9.460001E+001 -2.653113E+001 -9.459419E+001 -9.137151E-001 -7.867393E+001
 440.0000     -1.323402E+000  5.999846E+001 -2.678259E+001 -9.567994E+001 -2.678113E+001 -9.567506E+001 -9.577115E-001 -8.175865E+001
 441.0000     -1.396000E+000  5.519181E+001 -2.725650E+001 -9.586004E+001 -2.725410E+001 -9.586015E+001 -1.004254E+000 -8.498682E+001
 442.0000     -1.480303E+000  5.004491E+001 -2.800018E+001 -9.441546E+001 -2.800434E+001 -9.443046E+001 -1.056666E+000 -8.839196E+001
 443.0000     -1.575014E+000  4.457416E+001 -2.907795E+001 -8.978007E+001 -2.907773E+001 -8.978777E+001 -1.115882E+000 -9.197938E+001
 444.0000     -1.680583E+000  3.873150E+001 -3.034914E+001 -7.894995E+001 -3.034984E+001 -7.898199E+001 -1.182244E+000 -9.576505E+001
 445.0000     -1.804888E+000  3.243613E+001 -3.100867E+001 -5.835629E+001 -3.101166E+001 -5.838147E+001 -1.260961E+000 -9.980447E+001
 446.0000     -1.945298E+000  2.564862E+001 -2.953093E+001 -3.335580E+001 -2.953523E+001 -3.339010E+001 -1.351784E+000 -1.041068E+002
 447.0000     -2.113056E+000  1.834096E+001 -2.634479E+001 -1.697144E+001 -2.634862E+001 -1.695605E+001 -1.465214E+000 -1.087188E+002
 448.0000     -2.310229E+000  1.042286E+001 -2.293660E+001 -1.030759E+001 -2.294338E+001 -1.030111E+001 -1.601338E+000 -1.136679E+002
 449.0000     -2.551642E+000  1.835962E+000 -1.983575E+001 -9.505148E+000 -1.984041E+001 -9.482718E+000 -1.772888E+000 -1.189848E+002
 450.0000     -2.846662E+000 -7.445447E+000 -1.708774E+001 -1.209197E+001 -1.709062E+001 -1.206105E+001 -1.990874E+000 -1.247294E+002
 451.0000     -3.208798E+000 -1.749869E+001 -1.464995E+001 -1.682672E+001 -1.465171E+001 -1.681243E+001 -2.269498E+000 -1.308911E+002
 452.0000     -3.656379E+000 -2.833752E+001 -1.248799E+001 -2.312059E+001 -1.249183E+001 -2.309735E+001 -2.627413E+000 -1.374650E+002
 453.0000     -4.206201E+000 -3.992515E+001 -1.058042E+001 -3.054809E+001 -1.058260E+001 -3.052086E+001 -3.082485E+000 -1.444098E+002
 454.0000     -4.873682E+000 -5.215785E+001 -8.915390E+000 -3.881813E+001 -8.917486E+000 -3.879835E+001 -3.657070E+000 -1.516534E+002
 455.0000     -5.669787E+000 -6.493931E+001 -7.482080E+000 -4.768512E+001 -7.481871E+000 -4.765860E+001 -4.357803E+000 -1.590483E+002
 456.0000     -6.595809E+000 -7.805331E+001 -6.272539E+000 -5.684191E+001 -6.273985E+000 -5.681953E+001 -5.196130E+000 -1.664440E+002
 457.0000     -7.638119E+000 -9.130885E+001 -5.272423E+000 -6.607067E+001 -5.274909E+000 -6.604970E+001 -6.171623E+000 -1.736750E+002
 458.0000     -8.775158E+000 -1.044504E+002 -4.460279E+000 -7.516061E+001 -4.461556E+000 -7.515513E+001 -7.264708E+000  1.793477E+002
 459.0000     -9.979544E+000 -1.173219E+002 -3.808061E+000 -8.395832E+001 -3.810645E+000 -8.395142E+001 -8.465592E+000  1.727313E+002
 460.0000     -1.122232E+001 -1.297064E+002 -3.292122E+000 -9.232691E+001 -3.293129E+000 -9.231918E+001 -9.755421E+000  1.664633E+002
 461.0000     -1.247333E+001 -1.414285E+002 -2.881007E+000 -1.002564E+002 -2.882926E+000 -1.002450E+002 -1.111463E+001  1.604622E+002
 462.0000     -1.371270E+001 -1.523345E+002 -2.558006E+000 -1.077036E+002 -2.557230E+000 -1.076936E+002 -1.253449E+001  1.546125E+002
 463.0000     -1.492242E+001 -1.622631E+002 -2.297465E+000 -1.146972E+002 -2.297909E+000 -1.146779E+002 -1.400941E+001  1.487624E+002
 464.0000     -1.609915E+001 -1.710871E+002 -2.090402E+000 -1.212640E+002 -2.089987E+000 -1.212419E+002 -1.553340E+001  1.426484E+002
 465.0000     -1.723469E+001 -1.786859E+002 -1.918534E+000 -1.274390E+002 -1.918946E+000 -1.274273E+002 -1.710353E+001  1.359873E+002
 466.0000     -1.832592E+001  1.751186E+002 -1.779828E+000 -1.332692E+002 -1.780942E+000 -1.332563E+002 -1.872377E+001  1.284497E+002
 467.0000     -1.935964E+001  1.702772E+002 -1.662597E+000 -1.387789E+002 -1.665126E+000 -1.387612E+002 -2.036471E+001  1.196008E+002
 468.0000     -2.033148E+001  1.670233E+002 -1.566915E+000 -1.439989E+002 -1.569240E+000 -1.439846E+002 -2.198479E+001  1.087908E+002
 469.0000     -2.120607E+001  1.651936E+002 -1.484503E+000 -1.489670E+002 -1.485189E+000 -1.489554E+002 -2.345295E+001  9.558691E+001
 470.0000     -2.193995E+001  1.648538E+002 -1.413182E+000 -1.537090E+002 -1.416043E+000 -1.536903E+002 -2.460401E+001  7.999198E+001
 471.0000     -2.252622E+001  1.657104E+002 -1.354790E+000 -1.582422E+002 -1.354388E+000 -1.582203E+002 -2.521898E+001  6.288509E+001
 472.0000     -2.289420E+001  1.673098E+002 -1.300038E+000 -1.625879E+002 -1.302525E+000 -1.625699E+002 -2.522508E+001  4.618321E+001
 473.0000     -2.308337E+001  1.694754E+002 -1.256279E+000 -1.667529E+002 -1.257554E+000 -1.667439E+002 -2.478878E+001  3.154634E+001
 474.0000     -2.308589E+001  1.716338E+002 -1.217195E+000 -1.707700E+002 -1.218493E+000 -1.707508E+002 -2.409840E+001  1.939710E+001
 475.0000     -2.293507E+001  1.733847E+002 -1.181164E+000 -1.746355E+002 -1.181263E+000 -1.746290E+002 -2.334759E+001  9.572683E+000
 476.0000     -2.269573E+001  1.747345E+002 -1.151123E+000 -1.783863E+002 -1.149096E+000 -1.783646E+002 -2.261352E+001  1.493455E+000
 477.0000     -2.238169E+001  1.755273E+002 -1.121703E+000  1.779934E+002 -1.120373E+000  1.780141E+002 -2.195889E+001 -5.265019E+000
 478.0000     -2.206364E+001  1.758067E+002 -1.096798E+000  1.745022E+002 -1.096172E+000  1.744944E+002 -2.136838E+001 -1.102790E+001
 479.0000     -2.172715E+001  1.756444E+002 -1.071440E+000  1.710906E+002 -1.074651E+000  1.710973E+002 -2.085724E+001 -1.609725E+001
 480.0000     -2.141413E+001  1.750615E+002 -1.052023E+000  1.677978E+002 -1.053511E+000  1.677860E+002 -2.042063E+001 -2.065335E+001
 481.0000     -2.112163E+001  1.741999E+002 -1.033581E+000  1.645606E+002 -1.033208E+000  1.645678E+002 -2.004860E+001 -2.478745E+001
 482.0000     -2.085966E+001  1.730612E+002 -1.015232E+000  1.614393E+002 -1.016000E+000  1.614411E+002 -1.973890E+001 -2.859576E+001
 483.0000     -2.063204E+001  1.718734E+002 -9.987714E-001  1.583627E+002 -9.985482E-001  1.583900E+002 -1.947140E+001 -3.216467E+001
 484.0000     -2.043236E+001  1.704806E+002 -9.828979E-001  1.553894E+002 -9.841866E-001  1.554062E+002 -1.927092E+001 -3.559978E+001
 485.0000     -2.027651E+001  1.690453E+002 -9.678860E-001  1.524743E+002 -9.686554E-001  1.524900E+002 -1.910825E+001 -3.880056E+001
 486.0000     -2.014455E+001  1.675133E+002 -9.540154E-001  1.496329E+002 -9.550517E-001  1.496287E+002 -1.898616E+001 -4.193548E+001
 487.0000     -2.004586E+001  1.659891E+002 -9.396301E-001  1.468318E+002 -9.408152E-001  1.468323E+002 -1.890636E+001 -4.493978E+001
 488.0000     -1.998006E+001  1.644363E+002 -9.276543E-001  1.440986E+002 -9.282597E-001  1.441145E+002 -1.886722E+001 -4.780480E+001
 489.0000     -1.994305E+001  1.629345E+002 -9.149505E-001  1.414210E+002 -9.149820E-001  1.414282E+002 -1.885894E+001 -5.073415E+001
 490.0000     -1.992997E+001  1.613976E+002 -9.039125E-001  1.387867E+002 -9.032623E-001  1.387988E+002 -1.888442E+001 -5.347709E+001
 491.0000     -1.994819E+001  1.599312E+002 -8.909838E-001  1.362036E+002 -8.927568E-001  1.362073E+002 -1.893616E+001 -5.619843E+001
 492.0000     -1.999453E+001  1.584961E+002 -8.797884E-001  1.336620E+002 -8.807681E-001  1.336702E+002 -1.902490E+001 -5.890034E+001
 493.0000     -2.006048E+001  1.571522E+002 -8.703077E-001  1.311597E+002 -8.686969E-001  1.311780E+002 -1.913580E+001 -6.165268E+001
 494.0000     -2.013831E+001  1.558498E+002 -8.565939E-001  1.287048E+002 -8.587180E-001  1.287157E+002 -1.927761E+001 -6.427422E+001
 495.0000     -2.026731E+001  1.546207E+002 -8.478146E-001  1.262865E+002 -8.483411E-001  1.262944E+002 -1.945339E+001 -6.690694E+001
 496.0000     -2.039797E+001  1.535085E+002 -8.377561E-001  1.238952E+002 -8.380613E-001  1.239206E+002 -1.965134E+001 -6.958228E+001
 497.0000     -2.053885E+001  1.524764E+002 -8.263578E-001  1.215556E+002 -8.274692E-001  1.215632E+002 -1.988110E+001 -7.223743E+001
 498.0000     -2.071708E+001  1.515820E+002 -8.169615E-001  1.192490E+002 -8.184362E-001  1.192511E+002 -2.013684E+001 -7.487000E+001
 499.0000     -2.091578E+001  1.507325E+002 -8.077400E-001  1.169495E+002 -8.088049E-001  1.169617E+002 -2.043338E+001 -7.754887E+001
 500.0000     -2.112856E+001  1.500753E+002 -7.972291E-001  1.146911E+002 -7.996815E-001  1.147164E+002 -2.074191E+001 -8.022498E+001
 501.0000     -2.135253E+001  1.495435E+002 -7.898632E-001  1.124715E+002 -7.914336E-001  1.124833E+002 -2.108763E+001 -8.297947E+001
 502.0000     -2.159004E+001  1.491717E+002 -7.800019E-001  1.102765E+002 -7.815677E-001  1.102952E+002 -2.146634E+001 -8.584604E+001
 503.0000     -2.184142E+001  1.489823E+002 -7.720662E-001  1.081060E+002 -7.730678E-001  1.081167E+002 -2.188517E+001 -8.867065E+001
 504.0000     -2.211081E+001  1.488362E+002 -7.631541E-001  1.059589E+002 -7.649966E-001  1.059726E+002 -2.234510E+001 -9.163631E+001
 505.0000     -2.238019E+001  1.489879E+002 -7.555307E-001  1.038320E+002 -7.581815E-001  1.038455E+002 -2.282652E+001 -9.476289E+001
 506.0000     -2.265652E+001  1.493572E+002 -7.482077E-001  1.017236E+002 -7.507761E-001  1.017475E+002 -2.336618E+001 -9.796194E+001
 507.0000     -2.294814E+001  1.499404E+002 -7.415381E-001  9.965807E+001 -7.423581E-001  9.967809E+001 -2.393417E+001 -1.013498E+002
 508.0000     -2.321925E+001  1.507584E+002 -7.345942E-001  9.760165E+001 -7.353053E-001  9.761506E+001 -2.454141E+001 -1.049181E+002
 509.0000     -2.349840E+001  1.517029E+002 -7.265114E-001  9.557140E+001 -7.283720E-001  9.558302E+001 -2.522203E+001 -1.088892E+002
 510.0000     -2.377030E+001  1.530837E+002 -7.213625E-001  9.355772E+001 -7.219342E-001  9.357566E+001 -2.594365E+001 -1.132493E+002
 511.0000     -2.401368E+001  1.545178E+002 -7.159925E-001  9.155613E+001 -7.160243E-001  9.157719E+001 -2.674433E+001 -1.179079E+002
 512.0000     -2.424834E+001  1.563485E+002 -7.095857E-001  8.959468E+001 -7.111109E-001  8.959094E+001 -2.757249E+001 -1.231266E+002
 513.0000     -2.445202E+001  1.583096E+002 -7.060550E-001  8.763199E+001 -7.054628E-001  8.764478E+001 -2.848122E+001 -1.294279E+002
 514.0000     -2.460868E+001  1.604840E+002 -6.989039E-001  8.570271E+001 -7.009127E-001  8.571356E+001 -2.940532E+001 -1.364984E+002
 515.0000     -2.473991E+001  1.628234E+002 -6.947746E-001  8.378525E+001 -6.956838E-001  8.377900E+001 -3.036617E+001 -1.449494E+002
 516.0000     -2.480794E+001  1.651221E+002 -6.905426E-001  8.187865E+001 -6.931787E-001  8.188316E+001 -3.127994E+001 -1.550629E+002
 517.0000     -2.483624E+001  1.677478E+002 -6.859763E-001  7.997885E+001 -6.883956E-001  8.000620E+001 -3.199223E+001 -1.666589E+002
 518.0000     -2.481617E+001  1.702261E+002 -6.829804E-001  7.811846E+001 -6.851646E-001  7.813267E+001 -3.252668E+001  1.799754E+002
 519.0000     -2.475224E+001  1.725802E+002 -6.792316E-001  7.626069E+001 -6.807910E-001  7.628111E+001 -3.262524E+001  1.658245E+002
 520.0000     -2.463713E+001  1.749021E+002 -6.757619E-001  7.442315E+001 -6.766562E-001  7.444640E+001 -3.235490E+001  1.520154E+002
 521.0000     -2.449086E+001  1.772016E+002 -6.752325E-001  7.261503E+001 -6.736024E-001  7.262373E+001 -3.176942E+001  1.395581E+002
 522.0000     -2.432008E+001  1.791648E+002 -6.713699E-001  7.081107E+001 -6.731756E-001  7.081126E+001 -3.095435E+001  1.289038E+002
 523.0000     -2.409814E+001 -1.789952E+002 -6.678773E-001  6.901836E+001 -6.690491E-001  6.902242E+001 -3.008030E+001  1.196724E+002
 524.0000     -2.386706E+001 -1.774844E+002 -6.673517E-001  6.723695E+001 -6.689543E-001  6.724355E+001 -2.916948E+001  1.121168E+002
 525.0000     -2.360913E+001 -1.761219E+002 -6.653828E-001  6.546462E+001 -6.668308E-001  6.548025E+001 -2.828251E+001  1.057333E+002
 526.0000     -2.334655E+001 -1.749004E+002 -6.628468E-001  6.371300E+001 -6.644689E-001  6.372773E+001 -2.746563E+001  1.003304E+002
 527.0000     -2.308059E+001 -1.740271E+002 -6.617549E-001  6.198468E+001 -6.631841E-001  6.199414E+001 -2.667484E+001  9.563586E+001
 528.0000     -2.279902E+001 -1.732504E+002 -6.600708E-001  6.025718E+001 -6.624563E-001  6.027269E+001 -2.596503E+001  9.135786E+001
 529.0000     -2.252837E+001 -1.727327E+002 -6.605431E-001  5.854067E+001 -6.600168E-001  5.856946E+001 -2.528810E+001  8.756915E+001
 530.0000     -2.225677E+001 -1.723552E+002 -6.586058E-001  5.684784E+001 -6.602257E-001  5.686412E+001 -2.467675E+001  8.428910E+001
 531.0000     -2.198494E+001 -1.721585E+002 -6.592590E-001  5.515870E+001 -6.607274E-001  5.518028E+001 -2.409955E+001  8.118470E+001
 532.0000     -2.173177E+001 -1.720937E+002 -6.594270E-001  5.349044E+001 -6.592990E-001  5.350021E+001 -2.356924E+001  7.830927E+001
 533.0000     -2.148584E+001 -1.721676E+002 -6.580585E-001  5.181842E+001 -6.576344E-001  5.183410E+001 -2.309234E+001  7.558121E+001
 534.0000     -2.123938E+001 -1.723511E+002 -6.585037E-001  5.016879E+001 -6.583953E-001  5.018550E+001 -2.261580E+001  7.313177E+001
 535.0000     -2.099725E+001 -1.727014E+002 -6.564716E-001  4.852767E+001 -6.580499E-001  4.854129E+001 -2.220165E+001  7.074923E+001
 536.0000     -2.077037E+001 -1.731380E+002 -6.568305E-001  4.689618E+001 -6.588817E-001  4.690905E+001 -2.179839E+001  6.850709E+001
 537.0000     -2.055217E+001 -1.736023E+002 -6.572662E-001  4.528734E+001 -6.591632E-001  4.529744E+001 -2.142619E+001  6.635737E+001
 538.0000     -2.034378E+001 -1.742620E+002 -6.582745E-001  4.367602E+001 -6.585253E-001  4.368425E+001 -2.107812E+001  6.430572E+001
 539.0000     -2.014235E+001 -1.749644E+002 -6.584064E-001  4.206944E+001 -6.595314E-001  4.209009E+001 -2.076585E+001  6.235096E+001
 540.0000     -1.996760E+001 -1.756505E+002 -6.596597E-001  4.048178E+001 -6.608311E-001  4.050535E+001 -2.046256E+001  6.048617E+001
 541.0000     -1.979420E+001 -1.764922E+002 -6.592003E-001  3.890939E+001 -6.605399E-001  3.892202E+001 -2.017566E+001  5.861233E+001
 542.0000     -1.962726E+001 -1.774036E+002 -6.618528E-001  3.733559E+001 -6.595049E-001  3.735764E+001 -1.991382E+001  5.685474E+001
 543.0000     -1.947025E+001 -1.783200E+002 -6.599720E-001  3.577777E+001 -6.617397E-001  3.579934E+001 -1.966004E+001  5.511739E+001
 544.0000     -1.932130E+001 -1.793507E+002 -6.597726E-001  3.421584E+001 -6.583040E-001  3.425181E+001 -1.942726E+001  5.348067E+001
 545.0000     -1.918430E+001  1.796526E+002 -6.616281E-001  3.268315E+001 -6.612830E-001  3.269923E+001 -1.921486E+001  5.181934E+001
 546.0000     -1.904912E+001  1.785824E+002 -6.605666E-001  3.114766E+001 -6.595091E-001  3.116656E+001 -1.901733E+001  5.026081E+001
 547.0000     -1.892528E+001  1.774891E+002 -6.604642E-001  2.962658E+001 -6.625221E-001  2.964210E+001 -1.882683E+001  4.868148E+001
 548.0000     -1.882037E+001  1.762524E+002 -6.617436E-001  2.811725E+001 -6.628001E-001  2.813287E+001 -1.864520E+001  4.718682E+001
 549.0000     -1.871787E+001  1.751009E+002 -6.611658E-001  2.659733E+001 -6.624658E-001  2.661574E+001 -1.848394E+001  4.571107E+001
 550.0000     -1.861818E+001  1.739140E+002 -6.621140E-001  2.510046E+001 -6.628554E-001  2.512042E+001 -1.832856E+001  4.424566E+001
 551.0000     -1.852824E+001  1.726216E+002 -6.629344E-001  2.360673E+001 -6.616594E-001  2.361493E+001 -1.818887E+001  4.284018E+001
 552.0000     -1.844989E+001  1.713064E+002 -6.629952E-001  2.211934E+001 -6.631266E-001  2.213721E+001 -1.805319E+001  4.143371E+001
 553.0000     -1.838224E+001  1.700163E+002 -6.628640E-001  2.063849E+001 -6.628304E-001  2.064802E+001 -1.793609E+001  4.007159E+001
 554.0000     -1.831795E+001  1.686932E+002 -6.627933E-001  1.916489E+001 -6.633605E-001  1.917655E+001 -1.782803E+001  3.873675E+001
 555.0000     -1.826045E+001  1.673258E+002 -6.622317E-001  1.769366E+001 -6.643305E-001  1.771147E+001 -1.772328E+001  3.740011E+001
 556.0000     -1.821252E+001  1.659009E+002 -6.641141E-001  1.624530E+001 -6.632213E-001  1.624789E+001 -1.762850E+001  3.615232E+001
 557.0000     -1.817200E+001  1.645074E+002 -6.625399E-001  1.478318E+001 -6.631157E-001  1.480630E+001 -1.753550E+001  3.487568E+001
 558.0000     -1.812920E+001  1.630500E+002 -6.601909E-001  1.333468E+001 -6.637748E-001  1.335433E+001 -1.746240E+001  3.362421E+001
 559.0000     -1.810910E+001  1.615830E+002 -6.616531E-001  1.189845E+001 -6.628153E-001  1.191540E+001 -1.739243E+001  3.242918E+001
 560.0000     -1.808398E+001  1.601105E+002 -6.609255E-001  1.046622E+001 -6.614534E-001  1.047564E+001 -1.732952E+001  3.125477E+001
 561.0000     -1.806942E+001  1.585538E+002 -6.612067E-001  9.027842E+000 -6.614422E-001  9.040640E+000 -1.727402E+001  3.006384E+001
 562.0000     -1.806191E+001  1.570278E+002 -6.598486E-001  7.600243E+000 -6.610377E-001  7.616276E+000 -1.722923E+001  2.893434E+001
 563.0000     -1.805509E+001  1.554926E+002 -6.603948E-001  6.186382E+000 -6.608096E-001  6.199488E+000 -1.718575E+001  2.780574E+001
 564.0000     -1.805661E+001  1.539302E+002 -6.615852E-001  4.771070E+000 -6.594657E-001  4.788208E+000 -1.715619E+001  2.672016E+001
 565.0000     -1.807002E+001  1.522871E+002 -6.577793E-001  3.364457E+000 -6.587150E-001  3.379552E+000 -1.712761E+001  2.565696E+001
 566.0000     -1.808523E+001  1.506637E+002 -6.569837E-001  1.958362E+000 -6.580341E-001  1.972012E+000 -1.710714E+001  2.456956E+001
 567.0000     -1.810901E+001  1.489983E+002 -6.564143E-001  5.534556E-001 -6.573080E-001  5.742604E-001 -1.709316E+001  2.356144E+001
 568.0000     -1.814029E+001  1.473316E+002 -6.562384E-001 -8.416454E-001 -6.557769E-001 -8.217557E-001 -1.708901E+001  2.253913E+001
 569.0000     -1.817013E+001  1.456165E+002 -6.529782E-001 -2.236555E+000 -6.569982E-001 -2.218105E+000 -1.708222E+001  2.152451E+001
 570.0000     -1.821080E+001  1.439020E+002 -6.533616E-001 -3.619614E+000 -6.538521E-001 -3.608950E+000 -1.709095E+001  2.056342E+001
 571.0000     -1.825561E+001  1.421135E+002 -6.517692E-001 -5.011191E+000 -6.539096E-001 -4.991293E+000 -1.709641E+001  1.964664E+001
 572.0000     -1.830447E+001  1.403306E+002 -6.497992E-001 -6.388246E+000 -6.516149E-001 -6.371948E+000 -1.711467E+001  1.872125E+001
 573.0000     -1.836315E+001  1.385627E+002 -6.508936E-001 -7.764242E+000 -6.508194E-001 -7.747589E+000 -1.713452E+001  1.782417E+001
 574.0000     -1.842961E+001  1.367409E+002 -6.477333E-001 -9.135489E+000 -6.500682E-001 -9.125959E+000 -1.716189E+001  1.694088E+001
 575.0000     -1.848878E+001  1.348543E+002 -6.460111E-001 -1.050133E+001 -6.496626E-001 -1.049184E+001 -1.719131E+001  1.609548E+001
 576.0000     -1.857462E+001  1.329719E+002 -6.458548E-001 -1.187370E+001 -6.448188E-001 -1.185619E+001 -1.723547E+001  1.530620E+001
 577.0000     -1.864773E+001  1.309933E+002 -6.443137E-001 -1.323750E+001 -6.450331E-001 -1.321231E+001 -1.727815E+001  1.454751E+001
 578.0000     -1.872456E+001  1.290622E+002 -6.425108E-001 -1.458997E+001 -6.427301E-001 -1.457923E+001 -1.732704E+001  1.375145E+001
 579.0000     -1.881926E+001  1.270737E+002 -6.406775E-001 -1.594374E+001 -6.424874E-001 -1.593952E+001 -1.737828E+001  1.298652E+001
 580.0000     -1.890930E+001  1.250614E+002 -6.379008E-001 -1.730436E+001 -6.386758E-001 -1.728863E+001 -1.744196E+001  1.226472E+001
 581.0000     -1.900675E+001  1.229735E+002 -6.376461E-001 -1.865116E+001 -6.383719E-001 -1.864499E+001 -1.750246E+001  1.163484E+001
 582.0000     -1.911400E+001  1.208168E+002 -6.343859E-001 -2.001130E+001 -6.366601E-001 -1.999789E+001 -1.756969E+001  1.095640E+001
 583.0000     -1.921656E+001  1.186735E+002 -6.343169E-001 -2.134669E+001 -6.333695E-001 -2.133642E+001 -1.764622E+001  1.036020E+001
 584.0000     -1.932137E+001  1.164475E+002 -6.328568E-001 -2.270118E+001 -6.329408E-001 -2.267986E+001 -1.772038E+001  9.772101E+000
 585.0000     -1.943944E+001  1.142332E+002 -6.305836E-001 -2.404841E+001 -6.322293E-001 -2.401712E+001 -1.780149E+001  9.222017E+000
 586.0000     -1.956575E+001  1.119338E+002 -6.289497E-001 -2.538050E+001 -6.294856E-001 -2.536520E+001 -1.788528E+001  8.740316E+000
 587.0000     -1.967946E+001  1.095824E+002 -6.271089E-001 -2.671278E+001 -6.289006E-001 -2.670121E+001 -1.797884E+001  8.243981E+000
 588.0000     -1.981530E+001  1.072223E+002 -6.253698E-001 -2.806102E+001 -6.266942E-001 -2.803553E+001 -1.807215E+001  7.778382E+000
 589.0000     -1.993043E+001  1.048257E+002 -6.239610E-001 -2.938542E+001 -6.256042E-001 -2.937000E+001 -1.817132E+001  7.369835E+000
 590.0000     -2.007122E+001  1.022665E+002 -6.222093E-001 -3.072401E+001 -6.235583E-001 -3.071457E+001 -1.826555E+001  7.053240E+000
 591.0000     -2.020573E+001  9.964290E+001 -6.197401E-001 -3.204646E+001 -6.212606E-001 -3.202922E+001 -1.837913E+001  6.690625E+000
 592.0000     -2.034043E+001  9.710065E+001 -6.203493E-001 -3.338531E+001 -6.216943E-001 -3.335961E+001 -1.848669E+001  6.405559E+000
 593.0000     -2.047205E+001  9.437061E+001 -6.190675E-001 -3.470320E+001 -6.160592E-001 -3.468576E+001 -1.860548E+001  6.216955E+000
 594.0000     -2.061575E+001  9.159912E+001 -6.169070E-001 -3.603451E+001 -6.178769E-001 -3.600856E+001 -1.871981E+001  6.043659E+000
 595.0000     -2.075776E+001  8.873161E+001 -6.145746E-001 -3.735732E+001 -6.156245E-001 -3.733698E+001 -1.883695E+001  5.931732E+000
 596.0000     -2.089502E+001  8.583517E+001 -6.119749E-001 -3.867702E+001 -6.145831E-001 -3.865994E+001 -1.895372E+001  5.828037E+000
 597.0000     -2.102381E+001  8.287428E+001 -6.122695E-001 -3.999753E+001 -6.136904E-001 -3.998481E+001 -1.908590E+001  5.789792E+000
 598.0000     -2.116174E+001  7.982649E+001 -6.110087E-001 -4.133105E+001 -6.120213E-001 -4.129921E+001 -1.920118E+001  5.844542E+000
 599.0000     -2.129473E+001  7.669208E+001 -6.106550E-001 -4.263970E+001 -6.110777E-001 -4.261431E+001 -1.932431E+001  5.904886E+000
 600.0000     -2.141604E+001  7.355450E+001 -6.089099E-001 -4.395024E+001 -6.105101E-001 -4.394690E+001 -1.944918E+001  6.079183E+000
 601.0000     -2.154542E+001  7.022013E+001 -6.084664E-001 -4.526894E+001 -6.077739E-001 -4.526105E+001 -1.957506E+001  6.229252E+000
 602.0000     -2.164945E+001  6.685628E+001 -6.084008E-001 -4.658637E+001 -6.066694E-001 -4.657374E+001 -1.970052E+001  6.540997E+000
 603.0000     -2.176262E+001  6.349774E+001 -6.077585E-001 -4.789555E+001 -6.064016E-001 -4.788539E+001 -1.982117E+001  6.853212E+000
 604.0000     -2.185972E+001  5.997800E+001 -6.060546E-001 -4.921852E+001 -6.072827E-001 -4.920119E+001 -1.994979E+001  7.225111E+000
 605.0000     -2.195190E+001  5.641733E+001 -6.072569E-001 -5.053020E+001 -6.069863E-001 -5.050754E+001 -2.006263E+001  7.710344E+000
 606.0000     -2.203311E+001  5.282891E+001 -6.034482E-001 -5.183599E+001 -6.035380E-001 -5.181816E+001 -2.017679E+001  8.138271E+000
 607.0000     -2.210136E+001  4.908586E+001 -6.030684E-001 -5.315284E+001 -6.041893E-001 -5.312830E+001 -2.029581E+001  8.759066E+000
 608.0000     -2.215351E+001  4.543227E+001 -6.040265E-001 -5.445277E+001 -6.049835E-001 -5.444943E+001 -2.040460E+001  9.341550E+000
 609.0000     -2.219867E+001  4.167125E+001 -6.026102E-001 -5.577323E+001 -6.043919E-001 -5.574158E+001 -2.050356E+001  1.006610E+001
 610.0000     -2.222085E+001  3.791898E+001 -6.023773E-001 -5.707507E+001 -6.030522E-001 -5.705635E+001 -2.059962E+001  1.079272E+001
 611.0000     -2.222143E+001  3.404731E+001 -6.036674E-001 -5.838066E+001 -6.042960E-001 -5.836515E+001 -2.068275E+001  1.163904E+001
 612.0000     -2.222315E+001  3.022013E+001 -6.027493E-001 -5.968139E+001 -6.046239E-001 -5.966657E+001 -2.076922E+001  1.246109E+001
 613.0000     -2.220849E+001  2.648169E+001 -6.019379E-001 -6.100045E+001 -6.048952E-001 -6.098376E+001 -2.083256E+001  1.335706E+001
 614.0000     -2.218854E+001  2.258764E+001 -6.035190E-001 -6.231016E+001 -6.047488E-001 -6.229279E+001 -2.089761E+001  1.431763E+001
 615.0000     -2.213509E+001  1.892838E+001 -6.043983E-001 -6.360356E+001 -6.048129E-001 -6.358171E+001 -2.094233E+001  1.527200E+001
 616.0000     -2.206556E+001  1.512888E+001 -6.050414E-001 -6.490892E+001 -6.046157E-001 -6.489226E+001 -2.097670E+001  1.623722E+001
 617.0000     -2.199068E+001  1.139550E+001 -6.044725E-001 -6.620942E+001 -6.064531E-001 -6.620020E+001 -2.101446E+001  1.725561E+001
 618.0000     -2.190045E+001  7.734016E+000 -6.056846E-001 -6.750905E+001 -6.078125E-001 -6.749773E+001 -2.104099E+001  1.837402E+001
 619.0000     -2.180135E+001  4.121413E+000 -6.078905E-001 -6.882442E+001 -6.074254E-001 -6.880226E+001 -2.103535E+001  1.939276E+001
 620.0000     -2.169367E+001  5.282739E-001 -6.073226E-001 -7.012164E+001 -6.097823E-001 -7.011604E+001 -2.103636E+001  2.041696E+001
 621.0000     -2.157556E+001 -2.950254E+000 -6.079652E-001 -7.143049E+001 -6.105453E-001 -7.139621E+001 -2.102131E+001  2.149809E+001
 622.0000     -2.144872E+001 -6.396763E+000 -6.117850E-001 -7.273497E+001 -6.120895E-001 -7.271516E+001 -2.098978E+001  2.252280E+001
 623.0000     -2.131100E+001 -9.779343E+000 -6.127323E-001 -7.404202E+001 -6.144499E-001 -7.401714E+001 -2.094645E+001  2.355044E+001
 624.0000     -2.117132E+001 -1.306574E+001 -6.135637E-001 -7.533189E+001 -6.140890E-001 -7.532372E+001 -2.089496E+001  2.456064E+001
 625.0000     -2.102434E+001 -1.626927E+001 -6.144667E-001 -7.664256E+001 -6.164283E-001 -7.662038E+001 -2.083450E+001  2.548429E+001
 626.0000     -2.087063E+001 -1.942495E+001 -6.175365E-001 -7.794433E+001 -6.176661E-001 -7.791548E+001 -2.076793E+001  2.638375E+001
 627.0000     -2.071230E+001 -2.251019E+001 -6.197308E-001 -7.924197E+001 -6.204534E-001 -7.921731E+001 -2.068613E+001  2.730658E+001
 628.0000     -2.055635E+001 -2.547707E+001 -6.220323E-001 -8.054396E+001 -6.212932E-001 -8.052453E+001 -2.059730E+001  2.809401E+001
 629.0000     -2.040400E+001 -2.841848E+001 -6.230094E-001 -8.183227E+001 -6.229231E-001 -8.182702E+001 -2.050225E+001  2.886288E+001
 630.0000     -2.023691E+001 -3.130358E+001 -6.255479E-001 -8.313522E+001 -6.277975E-001 -8.313638E+001 -2.040651E+001  2.967159E+001
 631.0000     -2.007109E+001 -3.407280E+001 -6.272154E-001 -8.444285E+001 -6.283656E-001 -8.443272E+001 -2.029157E+001  3.030660E+001
 632.0000     -1.991562E+001 -3.678769E+001 -6.307672E-001 -8.574610E+001 -6.311632E-001 -8.573235E+001 -2.017930E+001  3.091330E+001
 633.0000     -1.974910E+001 -3.945895E+001 -6.309593E-001 -8.704562E+001 -6.324821E-001 -8.704649E+001 -2.006573E+001  3.140728E+001
 634.0000     -1.959933E+001 -4.206461E+001 -6.346882E-001 -8.834830E+001 -6.361488E-001 -8.832521E+001 -1.994711E+001  3.198197E+001
 635.0000     -1.945409E+001 -4.463011E+001 -6.377595E-001 -8.965765E+001 -6.376947E-001 -8.963904E+001 -1.982506E+001  3.239204E+001
 636.0000     -1.929527E+001 -4.710085E+001 -6.399427E-001 -9.096261E+001 -6.414081E-001 -9.093844E+001 -1.969813E+001  3.273437E+001
 637.0000     -1.914083E+001 -4.954023E+001 -6.424038E-001 -9.226012E+001 -6.446002E-001 -9.224431E+001 -1.957494E+001  3.303781E+001
 638.0000     -1.899846E+001 -5.190616E+001 -6.444249E-001 -9.356631E+001 -6.461330E-001 -9.354957E+001 -1.945050E+001  3.323998E+001
 639.0000     -1.885724E+001 -5.422728E+001 -6.492062E-001 -9.486516E+001 -6.479526E-001 -9.485785E+001 -1.932082E+001  3.350321E+001
 640.0000     -1.871596E+001 -5.655397E+001 -6.521960E-001 -9.617918E+001 -6.521580E-001 -9.615057E+001 -1.920036E+001  3.363634E+001
 641.0000     -1.858094E+001 -5.880896E+001 -6.542836E-001 -9.748263E+001 -6.552845E-001 -9.746616E+001 -1.907891E+001  3.369174E+001
 642.0000     -1.845325E+001 -6.094666E+001 -6.573132E-001 -9.879114E+001 -6.594045E-001 -9.876385E+001 -1.895831E+001  3.370201E+001
 643.0000     -1.831841E+001 -6.318781E+001 -6.596321E-001 -1.000952E+002 -6.622648E-001 -1.000844E+002 -1.883698E+001  3.374535E+001
 644.0000     -1.820260E+001 -6.528523E+001 -6.639537E-001 -1.014024E+002 -6.663287E-001 -1.013833E+002 -1.872211E+001  3.365661E+001
 645.0000     -1.808399E+001 -6.734459E+001 -6.681603E-001 -1.027176E+002 -6.675103E-001 -1.026987E+002 -1.860210E+001  3.353989E+001
 646.0000     -1.796534E+001 -6.940995E+001 -6.701099E-001 -1.040279E+002 -6.707408E-001 -1.040052E+002 -1.848591E+001  3.335198E+001
 647.0000     -1.785530E+001 -7.142608E+001 -6.730854E-001 -1.053306E+002 -6.749696E-001 -1.053255E+002 -1.838118E+001  3.318938E+001
 648.0000     -1.774681E+001 -7.334453E+001 -6.777653E-001 -1.066448E+002 -6.775094E-001 -1.066256E+002 -1.827962E+001  3.292384E+001
 649.0000     -1.765144E+001 -7.531460E+001 -6.795872E-001 -1.079630E+002 -6.807317E-001 -1.079480E+002 -1.816920E+001  3.259964E+001
 650.0000     -1.755714E+001 -7.725829E+001 -6.824047E-001 -1.092722E+002 -6.845198E-001 -1.092610E+002 -1.807630E+001  3.224658E+001
 651.0000     -1.747276E+001 -7.915465E+001 -6.873165E-001 -1.105977E+002 -6.860332E-001 -1.105807E+002 -1.797897E+001  3.188394E+001
 652.0000     -1.738668E+001 -8.103322E+001 -6.899345E-001 -1.119054E+002 -6.909574E-001 -1.119001E+002 -1.789245E+001  3.150994E+001
 653.0000     -1.730834E+001 -8.283347E+001 -6.946380E-001 -1.132385E+002 -6.950755E-001 -1.132134E+002 -1.781073E+001  3.104125E+001
 654.0000     -1.723468E+001 -8.463284E+001 -6.972728E-001 -1.145571E+002 -6.968103E-001 -1.145381E+002 -1.772935E+001  3.058214E+001
 655.0000     -1.717236E+001 -8.643417E+001 -7.000140E-001 -1.158923E+002 -7.003337E-001 -1.158684E+002 -1.765401E+001  3.000694E+001
 656.0000     -1.710056E+001 -8.817894E+001 -7.026469E-001 -1.172100E+002 -7.034038E-001 -1.171907E+002 -1.758123E+001  2.945269E+001
 657.0000     -1.705052E+001 -8.988982E+001 -7.055168E-001 -1.185424E+002 -7.066144E-001 -1.185204E+002 -1.751846E+001  2.889217E+001
 658.0000     -1.699823E+001 -9.159598E+001 -7.106572E-001 -1.198827E+002 -7.106242E-001 -1.198590E+002 -1.746020E+001  2.824672E+001
 659.0000     -1.695188E+001 -9.328958E+001 -7.125511E-001 -1.212025E+002 -7.124152E-001 -1.211836E+002 -1.740303E+001  2.765957E+001
 660.0000     -1.691136E+001 -9.493026E+001 -7.141142E-001 -1.225399E+002 -7.167338E-001 -1.225285E+002 -1.735384E+001  2.695587E+001
 661.0000     -1.686719E+001 -9.658028E+001 -7.186819E-001 -1.238847E+002 -7.186315E-001 -1.238659E+002 -1.731339E+001  2.622504E+001
 662.0000     -1.684491E+001 -9.816473E+001 -7.205809E-001 -1.252343E+002 -7.223825E-001 -1.252037E+002 -1.727427E+001  2.546898E+001
 663.0000     -1.681946E+001 -9.976614E+001 -7.240663E-001 -1.265773E+002 -7.248151E-001 -1.265646E+002 -1.724681E+001  2.467632E+001
 664.0000     -1.679806E+001 -1.013177E+002 -7.280046E-001 -1.279327E+002 -7.279690E-001 -1.279044E+002 -1.722565E+001  2.393722E+001
 665.0000     -1.679331E+001 -1.028588E+002 -7.298476E-001 -1.292857E+002 -7.307305E-001 -1.292582E+002 -1.719624E+001  2.307491E+001
 666.0000     -1.678202E+001 -1.043842E+002 -7.319735E-001 -1.306232E+002 -7.337222E-001 -1.306198E+002 -1.719182E+001  2.220631E+001
 667.0000     -1.678773E+001 -1.058586E+002 -7.351825E-001 -1.319987E+002 -7.348421E-001 -1.319856E+002 -1.718715E+001  2.134584E+001
 668.0000     -1.679457E+001 -1.073610E+002 -7.395942E-001 -1.333582E+002 -7.367079E-001 -1.333550E+002 -1.718498E+001  2.038918E+001
 669.0000     -1.680855E+001 -1.087945E+002 -7.388082E-001 -1.347363E+002 -7.403787E-001 -1.347111E+002 -1.719919E+001  1.945607E+001
 670.0000     -1.682581E+001 -1.102078E+002 -7.414730E-001 -1.361145E+002 -7.433161E-001 -1.360966E+002 -1.721369E+001  1.851958E+001
 671.0000     -1.685324E+001 -1.115723E+002 -7.433339E-001 -1.374929E+002 -7.463232E-001 -1.374738E+002 -1.724039E+001  1.746305E+001
 672.0000     -1.688381E+001 -1.129388E+002 -7.451474E-001 -1.388748E+002 -7.482758E-001 -1.388539E+002 -1.727621E+001  1.644386E+001
 673.0000     -1.693641E+001 -1.142301E+002 -7.494899E-001 -1.402656E+002 -7.496991E-001 -1.402377E+002 -1.731498E+001  1.536352E+001
 674.0000     -1.697575E+001 -1.155354E+002 -7.518882E-001 -1.416626E+002 -7.518757E-001 -1.416285E+002 -1.735825E+001  1.425354E+001
 675.0000     -1.703381E+001 -1.167873E+002 -7.538385E-001 -1.430665E+002 -7.539213E-001 -1.430556E+002 -1.742048E+001  1.306920E+001
 676.0000     -1.709583E+001 -1.180180E+002 -7.552484E-001 -1.444697E+002 -7.555923E-001 -1.444596E+002 -1.748425E+001  1.190318E+001
 677.0000     -1.716813E+001 -1.191928E+002 -7.572069E-001 -1.458834E+002 -7.582954E-001 -1.458585E+002 -1.756581E+001  1.067064E+001
 678.0000     -1.725143E+001 -1.202987E+002 -7.611879E-001 -1.472975E+002 -7.587800E-001 -1.472835E+002 -1.765465E+001  9.440208E+000
 679.0000     -1.732865E+001 -1.213936E+002 -7.623612E-001 -1.487261E+002 -7.611970E-001 -1.487182E+002 -1.775344E+001  8.112996E+000
 680.0000     -1.741790E+001 -1.223948E+002 -7.628143E-001 -1.501690E+002 -7.624721E-001 -1.501535E+002 -1.786459E+001  6.722473E+000
 681.0000     -1.752169E+001 -1.234306E+002 -7.657954E-001 -1.516090E+002 -7.663772E-001 -1.515958E+002 -1.798067E+001  5.322174E+000
 682.0000     -1.763396E+001 -1.242871E+002 -7.674233E-001 -1.530627E+002 -7.685603E-001 -1.530429E+002 -1.811045E+001  3.839595E+000
 683.0000     -1.774793E+001 -1.251871E+002 -7.700797E-001 -1.545187E+002 -7.696386E-001 -1.544950E+002 -1.825820E+001  2.337432E+000
 684.0000     -1.787825E+001 -1.259675E+002 -7.701792E-001 -1.559860E+002 -7.714235E-001 -1.559668E+002 -1.841382E+001  7.540919E-001
 685.0000     -1.800144E+001 -1.266619E+002 -7.730373E-001 -1.574675E+002 -7.729018E-001 -1.574390E+002 -1.859392E+001 -9.139943E-001
 686.0000     -1.815573E+001 -1.272339E+002 -7.741309E-001 -1.589533E+002 -7.756892E-001 -1.589279E+002 -1.877975E+001 -2.686485E+000
 687.0000     -1.830187E+001 -1.277812E+002 -7.767346E-001 -1.604395E+002 -7.762275E-001 -1.604151E+002 -1.898537E+001 -4.564339E+000
 688.0000     -1.845712E+001 -1.281731E+002 -7.785583E-001 -1.619446E+002 -7.783656E-001 -1.619195E+002 -1.920492E+001 -6.457523E+000
 689.0000     -1.861004E+001 -1.284894E+002 -7.812489E-001 -1.634541E+002 -7.818708E-001 -1.634240E+002 -1.945295E+001 -8.565499E+000
 690.0000     -1.879182E+001 -1.286326E+002 -7.831290E-001 -1.649793E+002 -7.853875E-001 -1.649628E+002 -1.970949E+001 -1.070868E+001
 691.0000     -1.896325E+001 -1.286738E+002 -7.861252E-001 -1.665238E+002 -7.866684E-001 -1.664920E+002 -1.999032E+001 -1.304688E+001
 692.0000     -1.913507E+001 -1.284834E+002 -7.883022E-001 -1.680560E+002 -7.902501E-001 -1.680365E+002 -2.029343E+001 -1.565080E+001
 693.0000     -1.929953E+001 -1.282719E+002 -7.922766E-001 -1.696241E+002 -7.927239E-001 -1.695917E+002 -2.061468E+001 -1.824748E+001
 694.0000     -1.948299E+001 -1.278366E+002 -7.940131E-001 -1.711823E+002 -7.961709E-001 -1.711595E+002 -2.096810E+001 -2.120658E+001
 695.0000     -1.966207E+001 -1.270615E+002 -7.989848E-001 -1.727578E+002 -7.987481E-001 -1.727373E+002 -2.132477E+001 -2.439497E+001
 696.0000     -1.980744E+001 -1.262524E+002 -8.026013E-001 -1.743539E+002 -8.022330E-001 -1.743403E+002 -2.172005E+001 -2.790296E+001
 697.0000     -1.996136E+001 -1.251574E+002 -8.050163E-001 -1.759649E+002 -8.067794E-001 -1.759548E+002 -2.213545E+001 -3.176739E+001
 698.0000     -2.009661E+001 -1.238568E+002 -8.114054E-001 -1.776007E+002 -8.113927E-001 -1.775828E+002 -2.256554E+001 -3.605838E+001
 699.0000     -2.020851E+001 -1.224184E+002 -8.179931E-001 -1.792226E+002 -8.158919E-001 -1.792096E+002 -2.299330E+001 -4.079452E+001
 700.0000     -2.028261E+001 -1.206915E+002 -8.218854E-001  1.791177E+002 -8.219662E-001  1.791293E+002 -2.345064E+001 -4.615095E+001
 701.0000     -2.032824E+001 -1.188165E+002 -8.277376E-001  1.774500E+002 -8.288307E-001  1.774734E+002 -2.386974E+001 -5.223259E+001
 702.0000     -2.033181E+001 -1.167780E+002 -8.351741E-001  1.757693E+002 -8.344292E-001  1.757951E+002 -2.427668E+001 -5.909013E+001
 703.0000     -2.029430E+001 -1.146381E+002 -8.424774E-001  1.740734E+002 -8.427996E-001  1.741004E+002 -2.460936E+001 -6.656254E+001
 704.0000     -2.019409E+001 -1.124152E+002 -8.507689E-001  1.723676E+002 -8.519595E-001  1.723775E+002 -2.485694E+001 -7.468580E+001
 705.0000     -2.005327E+001 -1.102732E+002 -8.606414E-001  1.706234E+002 -8.584896E-001  1.706532E+002 -2.496045E+001 -8.345495E+001
 706.0000     -1.985157E+001 -1.080046E+002 -8.698870E-001  1.688795E+002 -8.710065E-001  1.688903E+002 -2.489923E+001 -9.273550E+001
 707.0000     -1.961325E+001 -1.059101E+002 -8.820304E-001  1.671160E+002 -8.809533E-001  1.671340E+002 -2.470133E+001 -1.020464E+002
 708.0000     -1.931253E+001 -1.040237E+002 -8.928941E-001  1.653226E+002 -8.947790E-001  1.653559E+002 -2.430797E+001 -1.110086E+002
 709.0000     -1.897198E+001 -1.022860E+002 -9.056171E-001  1.635299E+002 -9.077747E-001  1.635489E+002 -2.378980E+001 -1.195164E+002
 710.0000     -1.859879E+001 -1.007458E+002 -9.209405E-001  1.617064E+002 -9.224128E-001  1.617298E+002 -2.315325E+001 -1.272927E+002
 711.0000     -1.819998E+001 -9.950038E+001 -9.377518E-001  1.598655E+002 -9.381799E-001  1.598887E+002 -2.244093E+001 -1.344828E+002
 712.0000     -1.776959E+001 -9.845217E+001 -9.536371E-001  1.580050E+002 -9.549851E-001  1.580273E+002 -2.170469E+001 -1.408809E+002
 713.0000     -1.732441E+001 -9.771970E+001 -9.723400E-001  1.561186E+002 -9.734347E-001  1.561391E+002 -2.093939E+001 -1.467182E+002
 714.0000     -1.686344E+001 -9.716651E+001 -9.938214E-001  1.542108E+002 -9.946306E-001  1.542295E+002 -2.017529E+001 -1.519095E+002
 715.0000     -1.639663E+001 -9.693126E+001 -1.014808E+000  1.522897E+002 -1.017633E+000  1.523092E+002 -1.941742E+001 -1.565777E+002
 716.0000     -1.593103E+001 -9.692893E+001 -1.040977E+000  1.503322E+002 -1.040985E+000  1.503685E+002 -1.868278E+001 -1.608858E+002
 717.0000     -1.545640E+001 -9.712647E+001 -1.067550E+000  1.483737E+002 -1.066540E+000  1.483882E+002 -1.795931E+001 -1.647973E+002
 718.0000     -1.498792E+001 -9.757748E+001 -1.094126E+000  1.463769E+002 -1.095649E+000  1.463992E+002 -1.726434E+001 -1.684091E+002
 719.0000     -1.451198E+001 -9.818417E+001 -1.126378E+000  1.443465E+002 -1.126908E+000  1.443782E+002 -1.658943E+001 -1.717832E+002
 720.0000     -1.405097E+001 -9.899059E+001 -1.159913E+000  1.423227E+002 -1.160797E+000  1.423255E+002 -1.593943E+001 -1.749801E+002
 721.0000     -1.359817E+001 -9.999373E+001 -1.197336E+000  1.402452E+002 -1.196125E+000  1.402677E+002 -1.531509E+001 -1.779728E+002
 722.0000     -1.314683E+001 -1.011154E+002 -1.236164E+000  1.381607E+002 -1.235897E+000  1.381808E+002 -1.470932E+001  1.792082E+002
 723.0000     -1.270746E+001 -1.024366E+002 -1.279113E+000  1.360481E+002 -1.278261E+000  1.360660E+002 -1.412421E+001  1.764750E+002
 724.0000     -1.227831E+001 -1.038665E+002 -1.325242E+000  1.339043E+002 -1.324344E+000  1.339280E+002 -1.356528E+001  1.738704E+002
 725.0000     -1.185287E+001 -1.054382E+002 -1.372079E+000  1.317402E+002 -1.373051E+000  1.317497E+002 -1.302568E+001  1.713336E+002
 726.0000     -1.144018E+001 -1.071664E+002 -1.426255E+000  1.295611E+002 -1.424895E+000  1.295710E+002 -1.250179E+001  1.688972E+002
 727.0000     -1.103816E+001 -1.089790E+002 -1.481974E+000  1.273304E+002 -1.481561E+000  1.273546E+002 -1.199532E+001  1.665068E+002
 728.0000     -1.064565E+001 -1.109266E+002 -1.543455E+000  1.250886E+002 -1.544351E+000  1.251147E+002 -1.150860E+001  1.641776E+002
 729.0000     -1.026123E+001 -1.129606E+002 -1.608861E+000  1.228205E+002 -1.606573E+000  1.228500E+002 -1.103460E+001  1.618785E+002
 730.0000     -9.885465E+000 -1.150955E+002 -1.675934E+000  1.205393E+002 -1.677685E+000  1.205561E+002 -1.058256E+001  1.596409E+002
 731.0000     -9.522877E+000 -1.173432E+002 -1.753211E+000  1.182217E+002 -1.751318E+000  1.182318E+002 -1.013974E+001  1.574246E+002
 732.0000     -9.168324E+000 -1.196699E+002 -1.831943E+000  1.158758E+002 -1.830875E+000  1.158913E+002 -9.717617E+000  1.552407E+002
 733.0000     -8.828130E+000 -1.220964E+002 -1.917196E+000  1.135128E+002 -1.918233E+000  1.135183E+002 -9.305427E+000  1.530943E+002
 734.0000     -8.491654E+000 -1.245666E+002 -2.007826E+000  1.111170E+002 -2.007572E+000  1.111388E+002 -8.907703E+000  1.509472E+002
 735.0000     -8.169085E+000 -1.271646E+002 -2.102280E+000  1.087025E+002 -2.104037E+000  1.087207E+002 -8.521181E+000  1.488268E+002
 736.0000     -7.855183E+000 -1.298240E+002 -2.203889E+000  1.062584E+002 -2.204329E+000  1.062771E+002 -8.146898E+000  1.467340E+002
 737.0000     -7.550602E+000 -1.325620E+002 -2.313814E+000  1.037932E+002 -2.315393E+000  1.038141E+002 -7.788036E+000  1.446242E+002
 738.0000     -7.255134E+000 -1.353603E+002 -2.429221E+000  1.013065E+002 -2.429295E+000  1.013319E+002 -7.441374E+000  1.425679E+002
 739.0000     -6.969617E+000 -1.382305E+002 -2.549351E+000  9.880835E+001 -2.550490E+000  9.882813E+001 -7.104838E+000  1.405071E+002
 740.0000     -6.695053E+000 -1.411472E+002 -2.678668E+000  9.627793E+001 -2.681066E+000  9.628979E+001 -6.781253E+000  1.384345E+002
 741.0000     -6.428797E+000 -1.441640E+002 -2.815666E+000  9.373215E+001 -2.816823E+000  9.373875E+001 -6.466716E+000  1.363810E+002
 742.0000     -6.172075E+000 -1.472281E+002 -2.961279E+000  9.116373E+001 -2.961726E+000  9.117744E+001 -6.165187E+000  1.343402E+002
 743.0000     -5.924673E+000 -1.503385E+002 -3.112162E+000  8.856853E+001 -3.114659E+000  8.860010E+001 -5.873142E+000  1.323177E+002
 744.0000     -5.687142E+000 -1.535090E+002 -3.275156E+000  8.597620E+001 -3.274252E+000  8.600008E+001 -5.593328E+000  1.302962E+002
 745.0000     -5.458174E+000 -1.567428E+002 -3.443773E+000  8.334637E+001 -3.442735E+000  8.336378E+001 -5.323286E+000  1.282796E+002
 746.0000     -5.236978E+000 -1.600275E+002 -3.620579E+000  8.071814E+001 -3.619315E+000  8.074133E+001 -5.060844E+000  1.262669E+002
 747.0000     -5.027921E+000 -1.633544E+002 -3.807749E+000  7.808057E+001 -3.808466E+000  7.810264E+001 -4.814366E+000  1.242937E+002
 748.0000     -4.825958E+000 -1.667349E+002 -4.005983E+000  7.541719E+001 -4.005667E+000  7.544956E+001 -4.574191E+000  1.222967E+002
 749.0000     -4.633302E+000 -1.701563E+002 -4.210093E+000  7.274403E+001 -4.212096E+000  7.277657E+001 -4.345755E+000  1.203222E+002
 750.0000     -4.446905E+000 -1.736259E+002 -4.426438E+000  7.008315E+001 -4.426537E+000  7.009116E+001 -4.123393E+000  1.183447E+002
 751.0000     -4.269599E+000 -1.771263E+002 -4.652140E+000  6.738180E+001 -4.652186E+000  6.740094E+001 -3.911069E+000  1.163941E+002
 752.0000     -4.103151E+000  1.793247E+002 -4.887399E+000  6.468729E+001 -4.888341E+000  6.471656E+001 -3.708670E+000  1.144470E+002
 753.0000     -3.942550E+000  1.757373E+002 -5.135168E+000  6.199874E+001 -5.135731E+000  6.202527E+001 -3.516242E+000  1.125075E+002
 754.0000     -3.791341E+000  1.721260E+002 -5.392241E+000  5.932029E+001 -5.392209E+000  5.933302E+001 -3.332895E+000  1.106075E+002
 755.0000     -3.648269E+000  1.684825E+002 -5.661180E+000  5.661440E+001 -5.660958E+000  5.664718E+001 -3.155901E+000  1.087045E+002
 756.0000     -3.511647E+000  1.647996E+002 -5.942367E+000  5.393269E+001 -5.942451E+000  5.394925E+001 -2.990201E+000  1.068271E+002
 757.0000     -3.381907E+000  1.611097E+002 -6.234168E+000  5.123631E+001 -6.233800E+000  5.126426E+001 -2.830629E+000  1.049597E+002
 758.0000     -3.260124E+000  1.573898E+002 -6.538204E+000  4.857193E+001 -6.537938E+000  4.858747E+001 -2.679753E+000  1.031100E+002
 759.0000     -3.145675E+000  1.536387E+002 -6.853284E+000  4.589363E+001 -6.854567E+000  4.590694E+001 -2.536673E+000  1.012662E+002
 760.0000     -3.037055E+000  1.498680E+002 -7.181370E+000  4.322957E+001 -7.183043E+000  4.326299E+001 -2.402122E+000  9.947871E+001
 761.0000     -2.933402E+000  1.460775E+002 -7.520832E+000  4.057473E+001 -7.523301E+000  4.061326E+001 -2.273466E+000  9.767487E+001
 762.0000     -2.839619E+000  1.422843E+002 -7.875471E+000  3.794596E+001 -7.876742E+000  3.797393E+001 -2.151994E+000  9.592123E+001
 763.0000     -2.747453E+000  1.384847E+002 -8.241364E+000  3.532696E+001 -8.242015E+000  3.536032E+001 -2.036859E+000  9.417407E+001
 764.0000     -2.662479E+000  1.346547E+002 -8.620957E+000  3.272008E+001 -8.622091E+000  3.275816E+001 -1.931473E+000  9.245432E+001
 765.0000     -2.584735E+000  1.308299E+002 -9.014262E+000  3.016634E+001 -9.016434E+000  3.018073E+001 -1.828383E+000  9.076474E+001
 766.0000     -2.511458E+000  1.269927E+002 -9.424048E+000  2.761197E+001 -9.425368E+000  2.762598E+001 -1.735761E+000  8.909085E+001
 767.0000     -2.442597E+000  1.231677E+002 -9.847548E+000  2.507598E+001 -9.848496E+000  2.509567E+001 -1.646557E+000  8.744133E+001
 768.0000     -2.377723E+000  1.193165E+002 -1.028510E+001  2.256301E+001 -1.028503E+001  2.258845E+001 -1.562496E+000  8.582919E+001
 769.0000     -2.316950E+000  1.154948E+002 -1.073871E+001  2.010065E+001 -1.074035E+001  2.010873E+001 -1.486399E+000  8.420975E+001
 770.0000     -2.261526E+000  1.116744E+002 -1.120767E+001  1.766485E+001 -1.120881E+001  1.767105E+001 -1.411547E+000  8.265410E+001
 771.0000     -2.208897E+000  1.078501E+002 -1.169419E+001  1.525560E+001 -1.169549E+001  1.526798E+001 -1.343597E+000  8.110897E+001
 772.0000     -2.160823E+000  1.040331E+002 -1.219769E+001  1.288275E+001 -1.219941E+001  1.291207E+001 -1.280466E+000  7.961362E+001
 773.0000     -2.111501E+000  1.002285E+002 -1.271759E+001  1.054901E+001 -1.271887E+001  1.058010E+001 -1.221231E+000  7.811796E+001
 774.0000     -2.069441E+000  9.647160E+001 -1.325809E+001  8.302068E+000 -1.325833E+001  8.306036E+000 -1.167214E+000  7.666607E+001
 775.0000     -2.030180E+000  9.269357E+001 -1.381809E+001  6.047816E+000 -1.381833E+001  6.059165E+000 -1.114882E+000  7.521220E+001
 776.0000     -1.989451E+000  8.894249E+001 -1.439675E+001  3.864093E+000 -1.439800E+001  3.877212E+000 -1.066859E+000  7.381100E+001
 777.0000     -1.955478E+000  8.523106E+001 -1.500323E+001  1.765218E+000 -1.500251E+001  1.782014E+000 -1.025388E+000  7.245422E+001
 778.0000     -1.922561E+000  8.151646E+001 -1.562882E+001 -3.109173E-001 -1.563140E+001 -2.880476E-001 -9.829755E-001  7.108570E+001
 779.0000     -1.889044E+000  7.784554E+001 -1.628013E+001 -2.293397E+000 -1.628062E+001 -2.269216E+000 -9.467061E-001  6.976699E+001
 780.0000     -1.859511E+000  7.418451E+001 -1.696045E+001 -4.216531E+000 -1.695944E+001 -4.191673E+000 -9.109852E-001  6.845751E+001
 781.0000     -1.830752E+000  7.056786E+001 -1.766921E+001 -6.019583E+000 -1.767084E+001 -6.003413E+000 -8.812668E-001  6.719136E+001
 782.0000     -1.801884E+000  6.696674E+001 -1.840775E+001 -7.759600E+000 -1.840783E+001 -7.741847E+000 -8.512707E-001  6.593333E+001
 783.0000     -1.776821E+000  6.341737E+001 -1.918596E+001 -9.372848E+000 -1.918609E+001 -9.349702E+000 -8.244740E-001  6.471351E+001
 784.0000     -1.749747E+000  5.987997E+001 -2.000148E+001 -1.086556E+001 -2.000059E+001 -1.083593E+001 -7.983996E-001  6.352336E+001
 785.0000     -1.727117E+000  5.639304E+001 -2.085902E+001 -1.217749E+001 -2.085751E+001 -1.217230E+001 -7.752154E-001  6.235046E+001
 786.0000     -1.704309E+000  5.293769E+001 -2.176581E+001 -1.332912E+001 -2.176858E+001 -1.333440E+001 -7.555935E-001  6.118063E+001
 787.0000     -1.680961E+000  4.952316E+001 -2.272679E+001 -1.428254E+001 -2.272478E+001 -1.428169E+001 -7.337728E-001  6.005680E+001
 788.0000     -1.656744E+000  4.614291E+001 -2.375191E+001 -1.493983E+001 -2.374986E+001 -1.492679E+001 -7.153830E-001  5.894869E+001
 789.0000     -1.636708E+000  4.278608E+001 -2.484862E+001 -1.527590E+001 -2.484571E+001 -1.525272E+001 -6.971596E-001  5.785593E+001
 790.0000     -1.615498E+000  3.951301E+001 -2.602360E+001 -1.510557E+001 -2.602418E+001 -1.510151E+001 -6.819819E-001  5.679831E+001
 791.0000     -1.594299E+000  3.623769E+001 -2.729659E+001 -1.440794E+001 -2.729821E+001 -1.437427E+001 -6.683674E-001  5.574516E+001
 792.0000     -1.573091E+000  3.302004E+001 -2.867386E+001 -1.282747E+001 -2.867449E+001 -1.283389E+001 -6.550238E-001  5.472871E+001
 793.0000     -1.554263E+000  2.984214E+001 -3.017125E+001 -1.006438E+001 -3.017439E+001 -1.011439E+001 -6.406254E-001  5.371244E+001
 794.0000     -1.534600E+000  2.670657E+001 -3.177840E+001 -5.669716E+000 -3.178526E+001 -5.685091E+000 -6.304345E-001  5.273585E+001
 795.0000     -1.515701E+000  2.362063E+001 -3.346481E+001  1.248185E+000 -3.346603E+001  1.258121E+000 -6.199420E-001  5.176906E+001
 796.0000     -1.496228E+000  2.057511E+001 -3.507109E+001  1.149859E+001 -3.506937E+001  1.150110E+001 -6.076918E-001  5.080724E+001
 797.0000     -1.476581E+000  1.756715E+001 -3.631264E+001  2.566342E+001 -3.630624E+001  2.566027E+001 -5.982924E-001  4.987897E+001
 798.0000     -1.458247E+000  1.461518E+001 -3.679801E+001  4.227081E+001 -3.679826E+001  4.223673E+001 -5.894448E-001  4.895706E+001
 799.0000     -1.438858E+000  1.168732E+001 -3.640859E+001  5.805470E+001 -3.640896E+001  5.795726E+001 -5.823613E-001  4.806102E+001
 800.0000     -1.419578E+000  8.832381E+000 -3.545619E+001  7.025504E+001 -3.545241E+001  7.027464E+001 -5.732670E-001  4.718466E+001
 801.0000     -1.402774E+000  5.986641E+000 -3.431570E+001  7.872749E+001 -3.431476E+001  7.872795E+001 -5.652813E-001  4.628358E+001
 802.0000     -1.383744E+000  3.215780E+000 -3.318913E+001  8.446104E+001 -3.320308E+001  8.451919E+001 -5.600725E-001  4.544229E+001
 803.0000     -1.364426E+000  4.711967E-001 -3.216915E+001  8.814561E+001 -3.217667E+001  8.814122E+001 -5.529637E-001  4.458221E+001
 804.0000     -1.348096E+000 -2.233186E+000 -3.126990E+001  9.052322E+001 -3.127249E+001  9.053011E+001 -5.460501E-001  4.376654E+001
 805.0000     -1.331949E+000 -4.885929E+000 -3.048194E+001  9.198685E+001 -3.047761E+001  9.200369E+001 -5.389515E-001  4.295032E+001
 806.0000     -1.314366E+000 -7.497584E+000 -2.978857E+001  9.281064E+001 -2.978749E+001  9.281932E+001 -5.347019E-001  4.213516E+001
 807.0000     -1.297618E+000 -1.008320E+001 -2.917455E+001  9.318503E+001 -2.917637E+001  9.318294E+001 -5.268142E-001  4.135595E+001
 808.0000     -1.278745E+000 -1.261077E+001 -2.864222E+001  9.318536E+001 -2.864389E+001  9.323511E+001 -5.219362E-001  4.056102E+001
 809.0000     -1.264245E+000 -1.511457E+001 -2.817428E+001  9.293863E+001 -2.817842E+001  9.298837E+001 -5.169543E-001  3.978925E+001
 810.0000     -1.247013E+000 -1.756619E+001 -2.776229E+001  9.254090E+001 -2.776621E+001  9.259760E+001 -5.119526E-001  3.903499E+001
 811.0000     -1.229580E+000 -1.996842E+001 -2.740358E+001  9.200507E+001 -2.739871E+001  9.203085E+001 -5.051580E-001  3.827901E+001
 812.0000     -1.213237E+000 -2.233220E+001 -2.707909E+001  9.133437E+001 -2.707574E+001  9.135768E+001 -5.005283E-001  3.753156E+001
 813.0000     -1.199077E+000 -2.468296E+001 -2.679519E+001  9.056788E+001 -2.679713E+001  9.062971E+001 -4.987201E-001  3.680671E+001
 814.0000     -1.183219E+000 -2.696636E+001 -2.654288E+001  8.974743E+001 -2.654620E+001  8.979423E+001 -4.925277E-001  3.607780E+001
 815.0000     -1.166585E+000 -2.923226E+001 -2.632164E+001  8.888638E+001 -2.632500E+001  8.891603E+001 -4.868077E-001  3.536641E+001
 816.0000     -1.151968E+000 -3.145743E+001 -2.613262E+001  8.795219E+001 -2.612832E+001  8.795210E+001 -4.836594E-001  3.465645E+001
 817.0000     -1.137338E+000 -3.364459E+001 -2.596089E+001  8.700291E+001 -2.596212E+001  8.701908E+001 -4.785250E-001  3.396280E+001
 818.0000     -1.122992E+000 -3.579476E+001 -2.581536E+001  8.603410E+001 -2.581303E+001  8.604480E+001 -4.745762E-001  3.327870E+001
 819.0000     -1.106045E+000 -3.790647E+001 -2.568599E+001  8.502205E+001 -2.568636E+001  8.505505E+001 -4.708774E-001  3.260722E+001
 820.0000     -1.093687E+000 -4.000496E+001 -2.558032E+001  8.400037E+001 -2.557621E+001  8.401624E+001 -4.644782E-001  3.191453E+001
 821.0000     -1.078519E+000 -4.205417E+001 -2.548697E+001  8.299263E+001 -2.548684E+001  8.302703E+001 -4.615009E-001  3.127862E+001
 822.0000     -1.065859E+000 -4.407067E+001 -2.540757E+001  8.196786E+001 -2.541095E+001  8.198616E+001 -4.581951E-001  3.061034E+001
 823.0000     -1.054418E+000 -4.605239E+001 -2.534995E+001  8.091275E+001 -2.534914E+001  8.095412E+001 -4.545184E-001  2.996129E+001
 824.0000     -1.041077E+000 -4.801836E+001 -2.529661E+001  7.985632E+001 -2.529852E+001  7.991331E+001 -4.490351E-001  2.931170E+001
 825.0000     -1.026826E+000 -4.994725E+001 -2.526349E+001  7.880732E+001 -2.526125E+001  7.885292E+001 -4.457535E-001  2.866571E+001
 826.0000     -1.014563E+000 -5.183435E+001 -2.523311E+001  7.779420E+001 -2.523229E+001  7.779967E+001 -4.411854E-001  2.804243E+001
 827.0000     -1.004077E+000 -5.369884E+001 -2.522099E+001  7.676676E+001 -2.522104E+001  7.677614E+001 -4.359182E-001  2.742369E+001
 828.0000     -9.908978E-001 -5.554872E+001 -2.521205E+001  7.572348E+001 -2.521058E+001  7.573542E+001 -4.331978E-001  2.680642E+001
 829.0000     -9.770469E-001 -5.736345E+001 -2.521800E+001  7.467696E+001 -2.522036E+001  7.469689E+001 -4.306913E-001  2.618965E+001
 830.0000     -9.668015E-001 -5.913866E+001 -2.523082E+001  7.365785E+001 -2.523396E+001  7.368104E+001 -4.275356E-001  2.559295E+001
 831.0000     -9.558071E-001 -6.090525E+001 -2.525068E+001  7.263008E+001 -2.524669E+001  7.266553E+001 -4.212798E-001  2.499616E+001
 832.0000     -9.449754E-001 -6.263646E+001 -2.528009E+001  7.162779E+001 -2.527876E+001  7.165424E+001 -4.189773E-001  2.440661E+001
 833.0000     -9.336889E-001 -6.433771E+001 -2.531362E+001  7.062544E+001 -2.531305E+001  7.063638E+001 -4.153035E-001  2.379510E+001
 834.0000     -9.235873E-001 -6.601303E+001 -2.535673E+001  6.962362E+001 -2.535857E+001  6.964827E+001 -4.128133E-001  2.323265E+001
 835.0000     -9.135688E-001 -6.767772E+001 -2.540765E+001  6.862354E+001 -2.540604E+001  6.864232E+001 -4.080659E-001  2.262790E+001
 836.0000     -9.029375E-001 -6.931441E+001 -2.545712E+001  6.765131E+001 -2.546272E+001  6.768864E+001 -4.050670E-001  2.206905E+001
 837.0000     -8.912824E-001 -7.092641E+001 -2.551761E+001  6.667383E+001 -2.552184E+001  6.669209E+001 -4.027736E-001  2.149778E+001
 838.0000     -8.848289E-001 -7.250185E+001 -2.558851E+001  6.571473E+001 -2.558923E+001  6.572626E+001 -4.002255E-001  2.093797E+001
 839.0000     -8.737699E-001 -7.406800E+001 -2.565762E+001  6.474258E+001 -2.566168E+001  6.476912E+001 -3.960467E-001  2.037023E+001
 840.0000     -8.658310E-001 -7.562244E+001 -2.573612E+001  6.377977E+001 -2.573534E+001  6.381129E+001 -3.915853E-001  1.984019E+001
 841.0000     -8.580518E-001 -7.713299E+001 -2.581783E+001  6.285000E+001 -2.582018E+001  6.286749E+001 -3.889000E-001  1.928140E+001
 842.0000     -8.491664E-001 -7.864568E+001 -2.590504E+001  6.191072E+001 -2.590672E+001  6.193452E+001 -3.883358E-001  1.874283E+001
 843.0000     -8.409259E-001 -8.011801E+001 -2.600004E+001  6.098351E+001 -2.599920E+001  6.101507E+001 -3.830104E-001  1.819927E+001
 844.0000     -8.328615E-001 -8.159692E+001 -2.609310E+001  6.006419E+001 -2.608854E+001  6.006812E+001 -3.793845E-001  1.764786E+001
 845.0000     -8.250560E-001 -8.303741E+001 -2.619077E+001  5.916123E+001 -2.618996E+001  5.918988E+001 -3.757598E-001  1.712441E+001
 846.0000     -8.167604E-001 -8.446288E+001 -2.629407E+001  5.824963E+001 -2.629759E+001  5.828145E+001 -3.741140E-001  1.658687E+001
 847.0000     -8.076424E-001 -8.587028E+001 -2.640088E+001  5.734335E+001 -2.640468E+001  5.740691E+001 -3.715396E-001  1.607081E+001
 848.0000     -8.029928E-001 -8.725463E+001 -2.651550E+001  5.648835E+001 -2.651410E+001  5.649896E+001 -3.680221E-001  1.554419E+001
 849.0000     -7.940533E-001 -8.864003E+001 -2.662750E+001  5.559541E+001 -2.663101E+001  5.561999E+001 -3.660030E-001  1.503814E+001
 850.0000     -7.858414E-001 -8.998390E+001 -2.674830E+001  5.474564E+001 -2.674826E+001  5.475228E+001 -3.629315E-001  1.451428E+001
 851.0000     -7.809309E-001 -9.132890E+001 -2.686839E+001  5.386847E+001 -2.687040E+001  5.390583E+001 -3.607242E-001  1.400652E+001
 852.0000     -7.747663E-001 -9.263467E+001 -2.699722E+001  5.304529E+001 -2.699573E+001  5.304950E+001 -3.574389E-001  1.348885E+001
 853.0000     -7.667001E-001 -9.394737E+001 -2.712235E+001  5.220251E+001 -2.712462E+001  5.222657E+001 -3.544122E-001  1.301124E+001
 854.0000     -7.625191E-001 -9.524173E+001 -2.725669E+001  5.137407E+001 -2.725510E+001  5.137775E+001 -3.507729E-001  1.250553E+001
 855.0000     -7.543581E-001 -9.652261E+001 -2.738979E+001  5.052751E+001 -2.739053E+001  5.055376E+001 -3.495159E-001  1.201240E+001
 856.0000     -7.505098E-001 -9.778265E+001 -2.752956E+001  4.971315E+001 -2.752977E+001  4.971130E+001 -3.469774E-001  1.151856E+001
 857.0000     -7.449104E-001 -9.902953E+001 -2.767233E+001  4.892421E+001 -2.766727E+001  4.892550E+001 -3.426556E-001  1.104534E+001
 858.0000     -7.374682E-001 -1.002557E+002 -2.781622E+001  4.811207E+001 -2.781716E+001  4.815257E+001 -3.412152E-001  1.055891E+001
 859.0000     -7.331337E-001 -1.014893E+002 -2.796120E+001  4.732401E+001 -2.796488E+001  4.730252E+001 -3.394790E-001  1.007282E+001
 860.0000     -7.266304E-001 -1.026776E+002 -2.811292E+001  4.654472E+001 -2.812090E+001  4.657567E+001 -3.381176E-001  9.586410E+000
 861.0000     -7.230958E-001 -1.038725E+002 -2.826954E+001  4.573332E+001 -2.826678E+001  4.577540E+001 -3.334059E-001  9.114839E+000
 862.0000     -7.176977E-001 -1.050638E+002 -2.842516E+001  4.499051E+001 -2.842360E+001  4.500126E+001 -3.331648E-001  8.645189E+000
 863.0000     -7.128076E-001 -1.062270E+002 -2.857960E+001  4.420414E+001 -2.858810E+001  4.421785E+001 -3.315257E-001  8.170534E+000
 864.0000     -7.087880E-001 -1.073856E+002 -2.874447E+001  4.347084E+001 -2.874859E+001  4.347098E+001 -3.278585E-001  7.714083E+000
 865.0000     -7.028512E-001 -1.085371E+002 -2.890876E+001  4.270914E+001 -2.891426E+001  4.275234E+001 -3.257539E-001  7.255601E+000
 866.0000     -6.995999E-001 -1.096686E+002 -2.907719E+001  4.196696E+001 -2.908425E+001  4.200806E+001 -3.223524E-001  6.795859E+000
 867.0000     -6.921179E-001 -1.107821E+002 -2.925033E+001  4.122120E+001 -2.925185E+001  4.127114E+001 -3.220156E-001  6.336491E+000
 868.0000     -6.892793E-001 -1.118912E+002 -2.942194E+001  4.053388E+001 -2.942875E+001  4.055691E+001 -3.188711E-001  5.885528E+000
 869.0000     -6.858984E-001 -1.129795E+002 -2.960249E+001  3.979641E+001 -2.960519E+001  3.984546E+001 -3.172409E-001  5.426519E+000
 870.0000     -6.824734E-001 -1.140783E+002 -2.978554E+001  3.909473E+001 -2.977868E+001  3.911490E+001 -3.128408E-001  4.978047E+000
 875.0000     -6.637104E-001 -1.193585E+002 -3.073880E+001  3.566000E+001 -3.073540E+001  3.567393E+001 -3.068717E-001  2.775869E+000
 880.0000     -6.460463E-001 -1.244170E+002 -3.176261E+001  3.234784E+001 -3.177413E+001  3.239976E+001 -2.969599E-001  6.445474E-001
 885.0000     -6.334740E-001 -1.292426E+002 -3.289531E+001  2.927900E+001 -3.290365E+001  2.932260E+001 -2.886210E-001 -1.449236E+000
 890.0000     -6.215696E-001 -1.338853E+002 -3.414455E+001  2.642311E+001 -3.412850E+001  2.635464E+001 -2.810037E-001 -3.478053E+000
 895.0000     -6.090252E-001 -1.383608E+002 -3.550291E+001  2.371942E+001 -3.550893E+001  2.374373E+001 -2.733498E-001 -5.440444E+000
 900.0000     -5.986122E-001 -1.426801E+002 -3.704681E+001  2.124917E+001 -3.705741E+001  2.142148E+001 -2.676927E-001 -7.383591E+000
 905.0000     -5.899369E-001 -1.468539E+002 -3.881892E+001  1.928236E+001 -3.882693E+001  1.930384E+001 -2.614480E-001 -9.276369E+000
 910.0000     -5.820547E-001 -1.508969E+002 -4.090551E+001  1.763809E+001 -4.090451E+001  1.765837E+001 -2.559955E-001 -1.111442E+001
 915.0000     -5.742688E-001 -1.548259E+002 -4.347289E+001  1.710311E+001 -4.347412E+001  1.722251E+001 -2.483766E-001 -1.292989E+001
 920.0000     -5.723273E-001 -1.586543E+002 -4.686308E+001  1.873871E+001 -4.687243E+001  1.862347E+001 -2.442782E-001 -1.468612E+001
 925.0000     -5.674694E-001 -1.623808E+002 -5.180576E+001  2.641133E+001 -5.183065E+001  2.647284E+001 -2.395812E-001 -1.642864E+001
 930.0000     -5.630018E-001 -1.660299E+002 -5.908886E+001  6.966843E+001 -5.917182E+001  6.996137E+001 -2.357383E-001 -1.812748E+001
 935.0000     -5.608982E-001 -1.695826E+002 -5.493411E+001  1.424560E+002 -5.493428E+001  1.419978E+002 -2.306545E-001 -1.978728E+001
 940.0000     -5.578400E-001 -1.730743E+002 -4.940038E+001  1.572308E+002 -4.943356E+001  1.570616E+002 -2.258097E-001 -2.142780E+001
 945.0000     -5.550883E-001 -1.764942E+002 -4.604708E+001  1.605212E+002 -4.608746E+001  1.605673E+002 -2.207531E-001 -2.303647E+001
 950.0000     -5.524877E-001 -1.798469E+002 -4.375714E+001  1.608702E+002 -4.374151E+001  1.608063E+002 -2.198768E-001 -2.462080E+001
 955.0000     -5.522306E-001  1.768545E+002 -4.200298E+001  1.601382E+002 -4.197487E+001  1.602361E+002 -2.169190E-001 -2.616950E+001
 960.0000     -5.494049E-001  1.735951E+002 -4.061320E+001  1.587946E+002 -4.060386E+001  1.588561E+002 -2.128451E-001 -2.771989E+001
 965.0000     -5.493302E-001  1.703899E+002 -3.948664E+001  1.572625E+002 -3.947149E+001  1.572888E+002 -2.095675E-001 -2.921672E+001
 970.0000     -5.484497E-001  1.672263E+002 -3.853209E+001  1.555992E+002 -3.853431E+001  1.555685E+002 -2.085570E-001 -3.072066E+001
 975.0000     -5.467888E-001  1.641156E+002 -3.771711E+001  1.537059E+002 -3.771681E+001  1.536507E+002 -2.080273E-001 -3.218624E+001
 980.0000     -5.462563E-001  1.610287E+002 -3.702505E+001  1.517918E+002 -3.702114E+001  1.518849E+002 -2.052432E-001 -3.362249E+001
 985.0000     -5.459052E-001  1.579853E+002 -3.640005E+001  1.497536E+002 -3.640123E+001  1.498122E+002 -2.018462E-001 -3.506031E+001
 990.0000     -5.466380E-001  1.549733E+002 -3.585722E+001  1.478614E+002 -3.585077E+001  1.479289E+002 -1.998109E-001 -3.646656E+001
 995.0000     -5.471829E-001  1.519807E+002 -3.537559E+001  1.458342E+002 -3.537442E+001  1.459233E+002 -1.992250E-001 -3.785696E+001
1000.0000     -5.450323E-001  1.490120E+002 -3.493559E+001  1.438656E+002 -3.493939E+001  1.438889E+002 -1.972787E-001 -3.923705E+001
1005.0000     -5.451835E-001  1.460927E+002 -3.453903E+001  1.418780E+002 -3.454586E+001  1.418869E+002 -1.934146E-001 -4.060030E+001
1010.0000     -5.444441E-001  1.431746E+002 -3.418416E+001  1.398536E+002 -3.418471E+001  1.399359E+002 -1.942239E-001 -4.193227E+001
1015.0000     -5.453110E-001  1.402872E+002 -3.385753E+001  1.378534E+002 -3.385624E+001  1.378197E+002 -1.918787E-001 -4.326802E+001
1020.0000     -5.461321E-001  1.373980E+002 -3.356543E+001  1.358645E+002 -3.356832E+001  1.359247E+002 -1.906830E-001 -4.458545E+001
1025.0000     -5.432459E-001  1.345297E+002 -3.328865E+001  1.338694E+002 -3.329696E+001  1.339364E+002 -1.918742E-001 -4.587181E+001
1030.0000     -5.429156E-001  1.316902E+002 -3.304015E+001  1.318884E+002 -3.304027E+001  1.319153E+002 -1.869179E-001 -4.717118E+001
1035.0000     -5.442574E-001  1.288786E+002 -3.280760E+001  1.299525E+002 -3.281385E+001  1.299530E+002 -1.870234E-001 -4.844219E+001
1040.0000     -5.433062E-001  1.260775E+002 -3.259848E+001  1.280014E+002 -3.259889E+001  1.279353E+002 -1.857441E-001 -4.971705E+001
1045.0000     -5.433145E-001  1.232745E+002 -3.239019E+001  1.260311E+002 -3.240015E+001  1.260084E+002 -1.834858E-001 -5.095991E+001
1050.0000     -5.430785E-001  1.204975E+002 -3.221344E+001  1.240399E+002 -3.221947E+001  1.240775E+002 -1.851932E-001 -5.220127E+001
1055.0000     -5.412601E-001  1.177163E+002 -3.204299E+001  1.221157E+002 -3.204507E+001  1.221087E+002 -1.825286E-001 -5.342455E+001
1060.0000     -5.433732E-001  1.149543E+002 -3.188276E+001  1.201489E+002 -3.188941E+001  1.201690E+002 -1.816855E-001 -5.464872E+001
1065.0000     -5.401032E-001  1.122072E+002 -3.174082E+001  1.182092E+002 -3.174630E+001  1.182261E+002 -1.839837E-001 -5.586235E+001
1070.0000     -5.432931E-001  1.094625E+002 -3.160601E+001  1.162658E+002 -3.160273E+001  1.163190E+002 -1.828375E-001 -5.703946E+001
1075.0000     -5.422934E-001  1.067169E+002 -3.146915E+001  1.143134E+002 -3.147287E+001  1.143613E+002 -1.821433E-001 -5.821682E+001
1080.0000     -5.404996E-001  1.039847E+002 -3.135402E+001  1.124244E+002 -3.135576E+001  1.124270E+002 -1.825312E-001 -5.941327E+001
1085.0000     -5.391859E-001  1.012566E+002 -3.123892E+001  1.105112E+002 -3.124510E+001  1.105377E+002 -1.823665E-001 -6.056128E+001
1090.0000     -5.387080E-001  9.853226E+001 -3.113105E+001  1.086137E+002 -3.113502E+001  1.086313E+002 -1.789672E-001 -6.170965E+001
1095.0000     -5.372981E-001  9.582840E+001 -3.103953E+001  1.067343E+002 -3.103787E+001  1.067343E+002 -1.802889E-001 -6.287762E+001
1100.0000     -5.345497E-001  9.311557E+001 -3.094331E+001  1.048123E+002 -3.094786E+001  1.048746E+002 -1.795824E-001 -6.400690E+001
1105.0000     -5.354221E-001  9.041541E+001 -3.085559E+001  1.029305E+002 -3.085900E+001  1.029501E+002 -1.805138E-001 -6.513002E+001
1110.0000     -5.325781E-001  8.771483E+001 -3.077491E+001  1.009988E+002 -3.077816E+001  1.010273E+002 -1.794811E-001 -6.626406E+001
1115.0000     -5.328431E-001  8.503168E+001 -3.070155E+001  9.917949E+001 -3.069837E+001  9.915900E+001 -1.779978E-001 -6.738130E+001
1120.0000     -5.316505E-001  8.234603E+001 -3.062755E+001  9.728387E+001 -3.062854E+001  9.731757E+001 -1.768481E-001 -6.848198E+001
1125.0000     -5.302378E-001  7.966473E+001 -3.056386E+001  9.540764E+001 -3.056258E+001  9.544340E+001 -1.788104E-001 -6.958777E+001
1130.0000     -5.282407E-001  7.696907E+001 -3.050087E+001  9.355579E+001 -3.050049E+001  9.354653E+001 -1.801627E-001 -7.067368E+001
1135.0000     -5.275621E-001  7.428925E+001 -3.044201E+001  9.169672E+001 -3.043805E+001  9.170501E+001 -1.784200E-001 -7.173750E+001
1140.0000     -5.265492E-001  7.160185E+001 -3.038898E+001  8.984225E+001 -3.038494E+001  8.983585E+001 -1.791560E-001 -7.281255E+001
1145.0000     -5.240384E-001  6.892455E+001 -3.033362E+001  8.793015E+001 -3.033414E+001  8.795238E+001 -1.794026E-001 -7.389202E+001
1150.0000     -5.222163E-001  6.624077E+001 -3.028938E+001  8.609335E+001 -3.028491E+001  8.611340E+001 -1.794036E-001 -7.493946E+001
1155.0000     -5.203568E-001  6.355431E+001 -3.023742E+001  8.423591E+001 -3.024254E+001  8.426908E+001 -1.789328E-001 -7.600742E+001
1160.0000     -5.187137E-001  6.088182E+001 -3.019492E+001  8.240721E+001 -3.019927E+001  8.241374E+001 -1.788318E-001 -7.705233E+001
1165.0000     -5.171962E-001  5.821291E+001 -3.015767E+001  8.057850E+001 -3.016087E+001  8.055241E+001 -1.795090E-001 -7.809316E+001
1170.0000     -5.171888E-001  5.554555E+001 -3.012387E+001  7.872793E+001 -3.012459E+001  7.870325E+001 -1.805537E-001 -7.911637E+001
1175.0000     -5.134704E-001  5.287043E+001 -3.008835E+001  7.683691E+001 -3.009357E+001  7.686667E+001 -1.782541E-001 -8.014514E+001
1180.0000     -5.116453E-001  5.019468E+001 -3.005986E+001  7.506512E+001 -3.005759E+001  7.505379E+001 -1.807467E-001 -8.115702E+001
1185.0000     -5.088653E-001  4.751389E+001 -3.003200E+001  7.321481E+001 -3.003162E+001  7.322159E+001 -1.810296E-001 -8.217426E+001
1190.0000     -5.078522E-001  4.484526E+001 -3.000513E+001  7.137529E+001 -3.000768E+001  7.137432E+001 -1.798942E-001 -8.316978E+001
1195.0000     -5.059679E-001  4.217918E+001 -2.997592E+001  6.954138E+001 -2.998249E+001  6.955271E+001 -1.804918E-001 -8.417164E+001
1200.0000     -5.039523E-001  3.949806E+001 -2.995481E+001  6.772291E+001 -2.996175E+001  6.771227E+001 -1.803928E-001 -8.516943E+001
1205.0000     -5.023606E-001  3.683126E+001 -2.993367E+001  6.590490E+001 -2.993754E+001  6.592991E+001 -1.799318E-001 -8.615650E+001
1210.0000     -5.009455E-001  3.413692E+001 -2.991975E+001  6.403857E+001 -2.991725E+001  6.409489E+001 -1.801209E-001 -8.713383E+001
1215.0000     -5.011790E-001  3.148246E+001 -2.990343E+001  6.225132E+001 -2.990573E+001  6.224831E+001 -1.830672E-001 -8.809540E+001
1220.0000     -4.973239E-001  2.878991E+001 -2.989082E+001  6.043053E+001 -2.989729E+001  6.045018E+001 -1.806413E-001 -8.905473E+001
1225.0000     -4.958348E-001  2.612287E+001 -2.988150E+001  5.860958E+001 -2.987976E+001  5.860879E+001 -1.832202E-001 -9.002504E+001
1230.0000     -4.931643E-001  2.343915E+001 -2.986963E+001  5.678950E+001 -2.986744E+001  5.681867E+001 -1.832649E-001 -9.098901E+001
1235.0000     -4.931156E-001  2.076658E+001 -2.985982E+001  5.498477E+001 -2.985877E+001  5.497631E+001 -1.831116E-001 -9.195850E+001
1240.0000     -4.909522E-001  1.809398E+001 -2.985435E+001  5.316247E+001 -2.985746E+001  5.318691E+001 -1.866531E-001 -9.291073E+001
1245.0000     -4.886767E-001  1.541597E+001 -2.985235E+001  5.136423E+001 -2.984844E+001  5.136445E+001 -1.852865E-001 -9.385951E+001
1250.0000     -4.874578E-001  1.274205E+001 -2.984795E+001  4.954153E+001 -2.984905E+001  4.955330E+001 -1.860805E-001 -9.479971E+001
1255.0000     -4.839370E-001  1.007940E+001 -2.984232E+001  4.775993E+001 -2.984509E+001  4.773826E+001 -1.858065E-001 -9.574954E+001
1260.0000     -4.840416E-001  7.412278E+000 -2.984667E+001  4.592997E+001 -2.985065E+001  4.596505E+001 -1.880716E-001 -9.666322E+001
1265.0000     -4.838681E-001  4.730305E+000 -2.984842E+001  4.413260E+001 -2.985023E+001  4.414077E+001 -1.878624E-001 -9.760601E+001
1270.0000     -4.825257E-001  2.072982E+000 -2.985209E+001  4.237117E+001 -2.985670E+001  4.233315E+001 -1.886252E-001 -9.851972E+001
1275.0000     -4.819170E-001 -5.983251E-001 -2.985675E+001  4.053289E+001 -2.985990E+001  4.055930E+001 -1.889327E-001 -9.945866E+001
1280.0000     -4.789367E-001 -3.263392E+000 -2.986245E+001  3.874099E+001 -2.986030E+001  3.879788E+001 -1.863037E-001 -1.003623E+002
1285.0000     -4.767056E-001 -5.920995E+000 -2.987171E+001  3.696114E+001 -2.986785E+001  3.696885E+001 -1.888948E-001 -1.012807E+002
1290.0000     -4.759408E-001 -8.569487E+000 -2.988344E+001  3.517851E+001 -2.988015E+001  3.517256E+001 -1.895010E-001 -1.021883E+002
1295.0000     -4.748324E-001 -1.122341E+001 -2.988819E+001  3.339386E+001 -2.989494E+001  3.339056E+001 -1.915744E-001 -1.031004E+002
1300.0000     -4.725184E-001 -1.386744E+001 -2.990059E+001  3.163231E+001 -2.990300E+001  3.165490E+001 -1.916211E-001 -1.039960E+002
1305.0000     -4.719933E-001 -1.651354E+001 -2.991334E+001  2.983694E+001 -2.991583E+001  2.984094E+001 -1.926862E-001 -1.048986E+002
1310.0000     -4.721920E-001 -1.914031E+001 -2.993200E+001  2.812138E+001 -2.993049E+001  2.809755E+001 -1.953159E-001 -1.057913E+002
1315.0000     -4.706826E-001 -2.177389E+001 -2.994647E+001  2.629185E+001 -2.994804E+001  2.629007E+001 -1.944290E-001 -1.067118E+002
1320.0000     -4.710509E-001 -2.439045E+001 -2.996506E+001  2.452407E+001 -2.996525E+001  2.455359E+001 -1.957915E-001 -1.075999E+002
1325.0000     -4.688649E-001 -2.701498E+001 -2.997737E+001  2.272978E+001 -2.998317E+001  2.273881E+001 -1.961691E-001 -1.085160E+002
1330.0000     -4.685704E-001 -2.962843E+001 -2.999865E+001  2.105895E+001 -3.000298E+001  2.103689E+001 -1.987980E-001 -1.093847E+002
1335.0000     -4.679634E-001 -3.222194E+001 -3.002261E+001  1.925078E+001 -3.002578E+001  1.923386E+001 -1.986938E-001 -1.103064E+002
1340.0000     -4.677638E-001 -3.482396E+001 -3.004829E+001  1.751115E+001 -3.004194E+001  1.749590E+001 -2.017024E-001 -1.111747E+002
1345.0000     -4.653811E-001 -3.742742E+001 -3.007144E+001  1.573010E+001 -3.007049E+001  1.575137E+001 -1.991378E-001 -1.120697E+002
1350.0000     -4.659109E-001 -4.000983E+001 -3.008884E+001  1.401472E+001 -3.009819E+001  1.403248E+001 -2.008373E-001 -1.129411E+002
1355.0000     -4.660370E-001 -4.256909E+001 -3.011240E+001  1.231440E+001 -3.011805E+001  1.229817E+001 -2.000563E-001 -1.138321E+002
1360.0000     -4.654295E-001 -4.513166E+001 -3.013913E+001  1.053367E+001 -3.013966E+001  1.055416E+001 -2.015489E-001 -1.147155E+002
1365.0000     -4.660964E-001 -4.770082E+001 -3.016461E+001  8.811892E+000 -3.016738E+001  8.843580E+000 -2.011016E-001 -1.155986E+002
1370.0000     -4.625730E-001 -5.024171E+001 -3.019289E+001  7.076227E+000 -3.019466E+001  7.126778E+000 -2.016817E-001 -1.164732E+002
1375.0000     -4.676385E-001 -5.277686E+001 -3.022995E+001  5.408897E+000 -3.022934E+001  5.443658E+000 -2.033324E-001 -1.173486E+002
1380.0000     -4.679796E-001 -5.530612E+001 -3.025772E+001  3.659048E+000 -3.025927E+001  3.694489E+000 -2.038788E-001 -1.182199E+002
1385.0000     -4.663612E-001 -5.781742E+001 -3.028666E+001  1.976713E+000 -3.028860E+001  2.015251E+000 -2.073192E-001 -1.190999E+002
1390.0000     -4.678858E-001 -6.033249E+001 -3.031814E+001  2.676557E-001 -3.032285E+001  3.065092E-001 -2.075260E-001 -1.199677E+002
1395.0000     -4.680035E-001 -6.282867E+001 -3.034943E+001 -1.424466E+000 -3.035292E+001 -1.372589E+000 -2.084219E-001 -1.208466E+002
1400.0000     -4.712321E-001 -6.531747E+001 -3.038641E+001 -3.098666E+000 -3.038130E+001 -3.087839E+000 -2.072063E-001 -1.217168E+002
1405.0000     -4.718767E-001 -6.779094E+001 -3.041398E+001 -4.762668E+000 -3.041858E+001 -4.764690E+000 -2.087746E-001 -1.225900E+002
1410.0000     -4.728683E-001 -7.026615E+001 -3.045121E+001 -6.454013E+000 -3.045332E+001 -6.463080E+000 -2.107505E-001 -1.234512E+002
1415.0000     -4.715607E-001 -7.271497E+001 -3.048513E+001 -8.088601E+000 -3.048462E+001 -8.114867E+000 -2.112699E-001 -1.243241E+002
1420.0000     -4.740148E-001 -7.515810E+001 -3.051434E+001 -9.830636E+000 -3.051850E+001 -9.784464E+000 -2.126772E-001 -1.251992E+002
1425.0000     -4.781524E-001 -7.759853E+001 -3.055943E+001 -1.144874E+001 -3.055952E+001 -1.141576E+001 -2.136110E-001 -1.260457E+002
1430.0000     -4.772027E-001 -8.000807E+001 -3.059706E+001 -1.307339E+001 -3.059897E+001 -1.306338E+001 -2.129615E-001 -1.268978E+002
1435.0000     -4.795365E-001 -8.242610E+001 -3.063687E+001 -1.470049E+001 -3.062950E+001 -1.468192E+001 -2.126749E-001 -1.277454E+002
1440.0000     -4.821416E-001 -8.482851E+001 -3.066855E+001 -1.635020E+001 -3.067585E+001 -1.633597E+001 -2.157704E-001 -1.286119E+002
1445.0000     -4.842817E-001 -8.720736E+001 -3.071071E+001 -1.795339E+001 -3.071543E+001 -1.797025E+001 -2.149361E-001 -1.294753E+002
1450.0000     -4.867687E-001 -8.958746E+001 -3.074817E+001 -1.959428E+001 -3.075417E+001 -1.953757E+001 -2.178262E-001 -1.303222E+002
1455.0000     -4.903472E-001 -9.196054E+001 -3.079218E+001 -2.121353E+001 -3.078750E+001 -2.118073E+001 -2.189427E-001 -1.311790E+002
1460.0000     -4.931369E-001 -9.431247E+001 -3.082932E+001 -2.280579E+001 -3.083225E+001 -2.278333E+001 -2.210831E-001 -1.320298E+002
1465.0000     -4.982686E-001 -9.667490E+001 -3.087473E+001 -2.438837E+001 -3.087588E+001 -2.439270E+001 -2.226820E-001 -1.328793E+002
1470.0000     -5.031576E-001 -9.900978E+001 -3.091692E+001 -2.597767E+001 -3.092052E+001 -2.598135E+001 -2.231763E-001 -1.337327E+002
1475.0000     -5.098710E-001 -1.013353E+002 -3.095813E+001 -2.754082E+001 -3.096116E+001 -2.752420E+001 -2.225102E-001 -1.345810E+002
1480.0000     -5.200276E-001 -1.036874E+002 -3.100375E+001 -2.911080E+001 -3.100790E+001 -2.908102E+001 -2.242886E-001 -1.354171E+002
1485.0000     -5.274404E-001 -1.059922E+002 -3.104805E+001 -3.066573E+001 -3.105715E+001 -3.064809E+001 -2.239510E-001 -1.362550E+002
1490.0000     -5.428365E-001 -1.083070E+002 -3.109958E+001 -3.218383E+001 -3.109748E+001 -3.218034E+001 -2.242525E-001 -1.371063E+002
1495.0000     -5.606248E-001 -1.105979E+002 -3.114713E+001 -3.372792E+001 -3.114832E+001 -3.368104E+001 -2.250183E-001 -1.379473E+002
1500.0000     -5.843995E-001 -1.128539E+002 -3.119879E+001 -3.509784E+001 -3.120292E+001 -3.511098E+001 -2.257000E-001 -1.387659E+002
1505.0000     -6.148860E-001 -1.150500E+002 -3.124276E+001 -3.647243E+001 -3.124930E+001 -3.646662E+001 -2.266923E-001 -1.395951E+002
1510.0000     -6.516846E-001 -1.171325E+002 -3.128642E+001 -3.776194E+001 -3.129328E+001 -3.777232E+001 -2.287388E-001 -1.404327E+002
1515.0000     -6.823243E-001 -1.190679E+002 -3.130588E+001 -3.900192E+001 -3.130643E+001 -3.895615E+001 -2.288678E-001 -1.412555E+002
1520.0000     -6.898287E-001 -1.209050E+002 -3.130535E+001 -4.024503E+001 -3.130076E+001 -4.024141E+001 -2.316045E-001 -1.420641E+002
1525.0000     -6.686360E-001 -1.227511E+002 -3.128608E+001 -4.170902E+001 -3.128688E+001 -4.171433E+001 -2.316117E-001 -1.428860E+002
1530.0000     -6.332641E-001 -1.247458E+002 -3.127464E+001 -4.333710E+001 -3.128113E+001 -4.333257E+001 -2.313351E-001 -1.437190E+002
1535.0000     -6.030725E-001 -1.268347E+002 -3.128764E+001 -4.500216E+001 -3.128805E+001 -4.498944E+001 -2.334019E-001 -1.445363E+002
1540.0000     -5.774014E-001 -1.289577E+002 -3.130915E+001 -4.657417E+001 -3.130830E+001 -4.661107E+001 -2.323239E-001 -1.453574E+002
1545.0000     -5.600541E-001 -1.311467E+002 -3.133001E+001 -4.820460E+001 -3.133570E+001 -4.818728E+001 -2.351876E-001 -1.461605E+002
1550.0000     -5.503098E-001 -1.333225E+002 -3.136450E+001 -4.977057E+001 -3.135875E+001 -4.977867E+001 -2.358913E-001 -1.469644E+002
1555.0000     -5.407860E-001 -1.354539E+002 -3.139030E+001 -5.129050E+001 -3.138758E+001 -5.129069E+001 -2.358246E-001 -1.477862E+002
1560.0000     -5.389521E-001 -1.375891E+002 -3.142250E+001 -5.283407E+001 -3.142158E+001 -5.281939E+001 -2.348963E-001 -1.485970E+002
1565.0000     -5.336554E-001 -1.397057E+002 -3.145540E+001 -5.430962E+001 -3.145432E+001 -5.433485E+001 -2.388354E-001 -1.494027E+002
1570.0000     -5.331019E-001 -1.418014E+002 -3.148011E+001 -5.583161E+001 -3.148151E+001 -5.577972E+001 -2.378158E-001 -1.502036E+002
1575.0000     -5.317181E-001 -1.438945E+002 -3.150622E+001 -5.733176E+001 -3.150573E+001 -5.732890E+001 -2.392772E-001 -1.510139E+002
1580.0000     -5.301744E-001 -1.459474E+002 -3.153458E+001 -5.872827E+001 -3.153884E+001 -5.874329E+001 -2.387302E-001 -1.518054E+002
1585.0000     -5.306206E-001 -1.479826E+002 -3.156127E+001 -6.017376E+001 -3.156026E+001 -6.015857E+001 -2.407869E-001 -1.525976E+002
1590.0000     -5.304541E-001 -1.500156E+002 -3.158495E+001 -6.161105E+001 -3.158487E+001 -6.160457E+001 -2.420275E-001 -1.533909E+002
1595.0000     -5.312172E-001 -1.520383E+002 -3.160721E+001 -6.305939E+001 -3.160294E+001 -6.304184E+001 -2.423701E-001 -1.541845E+002
1600.0000     -5.331180E-001 -1.540335E+002 -3.162626E+001 -6.444098E+001 -3.163148E+001 -6.443314E+001 -2.451433E-001 -1.549801E+002
1605.0000     -5.334967E-001 -1.560305E+002 -3.164729E+001 -6.586455E+001 -3.164759E+001 -6.587412E+001 -2.455707E-001 -1.557725E+002
1610.0000     -5.348067E-001 -1.580070E+002 -3.165532E+001 -6.723292E+001 -3.166196E+001 -6.722926E+001 -2.457650E-001 -1.565639E+002
1615.0000     -5.388666E-001 -1.599835E+002 -3.167628E+001 -6.866564E+001 -3.167902E+001 -6.865692E+001 -2.458846E-001 -1.573557E+002
1620.0000     -5.410673E-001 -1.619127E+002 -3.169186E+001 -7.003315E+001 -3.168913E+001 -7.002808E+001 -2.481172E-001 -1.581518E+002
1625.0000     -5.429896E-001 -1.638762E+002 -3.170246E+001 -7.141474E+001 -3.170345E+001 -7.139483E+001 -2.481475E-001 -1.589304E+002
1630.0000     -5.440286E-001 -1.658090E+002 -3.171416E+001 -7.280942E+001 -3.170492E+001 -7.279119E+001 -2.490568E-001 -1.597158E+002
1635.0000     -5.451540E-001 -1.677359E+002 -3.172352E+001 -7.418835E+001 -3.172573E+001 -7.416534E+001 -2.507269E-001 -1.604950E+002
1640.0000     -5.463311E-001 -1.696314E+002 -3.172871E+001 -7.556921E+001 -3.172713E+001 -7.554247E+001 -2.499646E-001 -1.612896E+002
1645.0000     -5.487031E-001 -1.715409E+002 -3.172453E+001 -7.690063E+001 -3.172269E+001 -7.691137E+001 -2.508301E-001 -1.620668E+002
1650.0000     -5.511230E-001 -1.734244E+002 -3.173057E+001 -7.828869E+001 -3.173218E+001 -7.826769E+001 -2.518856E-001 -1.628533E+002
1655.0000     -5.527491E-001 -1.753168E+002 -3.172827E+001 -7.960374E+001 -3.173217E+001 -7.962563E+001 -2.531134E-001 -1.636358E+002
1660.0000     -5.528985E-001 -1.771758E+002 -3.171918E+001 -8.093068E+001 -3.171950E+001 -8.090371E+001 -2.534893E-001 -1.644091E+002
1665.0000     -5.553446E-001 -1.790338E+002 -3.172138E+001 -8.226614E+001 -3.171618E+001 -8.226675E+001 -2.542347E-001 -1.651893E+002
1670.0000     -5.571504E-001  1.791153E+002 -3.171101E+001 -8.365683E+001 -3.171095E+001 -8.363025E+001 -2.585011E-001 -1.659908E+002
1675.0000     -5.592605E-001  1.772722E+002 -3.169957E+001 -8.496288E+001 -3.170449E+001 -8.497651E+001 -2.583018E-001 -1.667859E+002
1680.0000     -5.599064E-001  1.754618E+002 -3.168999E+001 -8.627184E+001 -3.168832E+001 -8.626056E+001 -2.607968E-001 -1.675639E+002
1685.0000     -5.636436E-001  1.736361E+002 -3.166824E+001 -8.762724E+001 -3.166396E+001 -8.759029E+001 -2.581143E-001 -1.683442E+002
1690.0000     -5.639210E-001  1.718235E+002 -3.164761E+001 -8.889282E+001 -3.164392E+001 -8.891209E+001 -2.612963E-001 -1.691346E+002
1695.0000     -5.657844E-001  1.700166E+002 -3.161997E+001 -9.025343E+001 -3.162019E+001 -9.024124E+001 -2.622858E-001 -1.699166E+002
1700.0000     -5.695308E-001  1.682147E+002 -3.159022E+001 -9.154556E+001 -3.160254E+001 -9.154980E+001 -2.644671E-001 -1.707029E+002
1705.0000     -5.717912E-001  1.664341E+002 -3.156607E+001 -9.289166E+001 -3.156484E+001 -9.285271E+001 -2.643480E-001 -1.714877E+002
1710.0000     -5.737997E-001  1.646502E+002 -3.153334E+001 -9.418163E+001 -3.153872E+001 -9.419985E+001 -2.660936E-001 -1.722873E+002
1715.0000     -5.738406E-001  1.628785E+002 -3.150096E+001 -9.553365E+001 -3.150251E+001 -9.547623E+001 -2.654019E-001 -1.730797E+002
1720.0000     -5.749781E-001  1.610990E+002 -3.145982E+001 -9.679654E+001 -3.145534E+001 -9.681451E+001 -2.658970E-001 -1.738715E+002
1725.0000     -5.778638E-001  1.593581E+002 -3.142180E+001 -9.810543E+001 -3.141295E+001 -9.810822E+001 -2.667432E-001 -1.746600E+002
1730.0000     -5.778013E-001  1.576025E+002 -3.136506E+001 -9.942075E+001 -3.136313E+001 -9.939257E+001 -2.682115E-001 -1.754499E+002
1735.0000     -5.808538E-001  1.558679E+002 -3.130588E+001 -1.007447E+002 -3.132096E+001 -1.007548E+002 -2.704339E-001 -1.762603E+002
1740.0000     -5.821849E-001  1.541224E+002 -3.125640E+001 -1.020518E+002 -3.126045E+001 -1.020295E+002 -2.696677E-001 -1.770443E+002
1745.0000     -5.821580E-001  1.524221E+002 -3.119340E+001 -1.033134E+002 -3.119161E+001 -1.033126E+002 -2.712234E-001 -1.778488E+002
1750.0000     -5.841273E-001  1.506927E+002 -3.112753E+001 -1.046199E+002 -3.112726E+001 -1.046162E+002 -2.738718E-001 -1.786450E+002
1755.0000     -5.860197E-001  1.489641E+002 -3.105192E+001 -1.059221E+002 -3.105478E+001 -1.059401E+002 -2.737016E-001 -1.794552E+002
1760.0000     -5.868108E-001  1.472826E+002 -3.097978E+001 -1.072592E+002 -3.098385E+001 -1.072088E+002 -2.775184E-001  1.797311E+002
1765.0000     -5.887341E-001  1.455675E+002 -3.089845E+001 -1.085534E+002 -3.090347E+001 -1.084690E+002 -2.781323E-001  1.789244E+002
1770.0000     -5.913550E-001  1.438629E+002 -3.081629E+001 -1.098175E+002 -3.081405E+001 -1.098359E+002 -2.804347E-001  1.781078E+002
1775.0000     -5.922067E-001  1.422014E+002 -3.072011E+001 -1.111380E+002 -3.072475E+001 -1.111299E+002 -2.817789E-001  1.772849E+002
1780.0000     -5.944142E-001  1.405003E+002 -3.062009E+001 -1.124161E+002 -3.062176E+001 -1.124249E+002 -2.826712E-001  1.764655E+002
1785.0000     -5.960961E-001  1.388233E+002 -3.051539E+001 -1.137600E+002 -3.051713E+001 -1.137638E+002 -2.828665E-001  1.756340E+002
1790.0000     -5.962495E-001  1.371518E+002 -3.040612E+001 -1.150675E+002 -3.040430E+001 -1.150866E+002 -2.877349E-001  1.748138E+002
1795.0000     -5.985695E-001  1.354799E+002 -3.028082E+001 -1.164107E+002 -3.028010E+001 -1.164002E+002 -2.858916E-001  1.739774E+002
1800.0000     -5.989416E-001  1.338273E+002 -3.015419E+001 -1.177108E+002 -3.015402E+001 -1.176995E+002 -2.880581E-001  1.731511E+002
1805.0000     -5.996166E-001  1.321681E+002 -3.001251E+001 -1.190459E+002 -3.001369E+001 -1.190409E+002 -2.895301E-001  1.723039E+002
1810.0000     -6.031992E-001  1.305144E+002 -2.987338E+001 -1.203658E+002 -2.987138E+001 -1.203653E+002 -2.923211E-001  1.714629E+002
1815.0000     -6.033542E-001  1.288677E+002 -2.971511E+001 -1.216926E+002 -2.971605E+001 -1.217058E+002 -2.960547E-001  1.706223E+002
1820.0000     -6.048122E-001  1.272339E+002 -2.954692E+001 -1.230415E+002 -2.954556E+001 -1.230346E+002 -2.957265E-001  1.697407E+002
1825.0000     -6.078300E-001  1.255961E+002 -2.937515E+001 -1.243927E+002 -2.936772E+001 -1.243913E+002 -2.997282E-001  1.688811E+002
1830.0000     -6.097797E-001  1.239605E+002 -2.918609E+001 -1.257737E+002 -2.918959E+001 -1.257585E+002 -3.031762E-001  1.680082E+002
1835.0000     -6.090340E-001  1.223520E+002 -2.898289E+001 -1.271192E+002 -2.899148E+001 -1.271320E+002 -3.095739E-001  1.671205E+002
1840.0000     -6.116944E-001  1.207230E+002 -2.877534E+001 -1.285382E+002 -2.877004E+001 -1.285322E+002 -3.116291E-001  1.662272E+002
1845.0000     -6.111465E-001  1.191071E+002 -2.854124E+001 -1.298985E+002 -2.853955E+001 -1.299364E+002 -3.153662E-001  1.653164E+002
1850.0000     -6.134357E-001  1.174800E+002 -2.829762E+001 -1.313723E+002 -2.829735E+001 -1.313754E+002 -3.194558E-001  1.643719E+002
1855.0000     -6.161031E-001  1.158590E+002 -2.803823E+001 -1.328136E+002 -2.803704E+001 -1.328215E+002 -3.220020E-001  1.634569E+002
1860.0000     -6.177770E-001  1.142456E+002 -2.775841E+001 -1.343158E+002 -2.776056E+001 -1.343003E+002 -3.295097E-001  1.624891E+002
1865.0000     -6.214296E-001  1.126387E+002 -2.745967E+001 -1.357827E+002 -2.746053E+001 -1.358100E+002 -3.361152E-001  1.615123E+002
1870.0000     -6.224109E-001  1.110272E+002 -2.713589E+001 -1.373413E+002 -2.713773E+001 -1.373443E+002 -3.420222E-001  1.605209E+002
1875.0000     -6.243430E-001  1.094232E+002 -2.678617E+001 -1.389316E+002 -2.679066E+001 -1.389541E+002 -3.508140E-001  1.594678E+002
1880.0000     -6.276647E-001  1.078104E+002 -2.641483E+001 -1.405822E+002 -2.641679E+001 -1.405706E+002 -3.634390E-001  1.583992E+002
1885.0000     -6.290803E-001  1.062056E+002 -2.601259E+001 -1.422315E+002 -2.601153E+001 -1.422778E+002 -3.761826E-001  1.572962E+002
1890.0000     -6.352158E-001  1.045948E+002 -2.557195E+001 -1.440331E+002 -2.557287E+001 -1.440137E+002 -3.916235E-001  1.561187E+002
1895.0000     -6.378342E-001  1.029860E+002 -2.509256E+001 -1.458757E+002 -2.509248E+001 -1.458735E+002 -4.083782E-001  1.548894E+002
1900.0000     -6.438457E-001  1.013444E+002 -2.457299E+001 -1.478368E+002 -2.457720E+001 -1.478302E+002 -4.341932E-001  1.535907E+002
1905.0000     -6.529332E-001  9.972617E+001 -2.400324E+001 -1.499431E+002 -2.400478E+001 -1.499715E+002 -4.634254E-001  1.521727E+002
1910.0000     -6.597127E-001  9.809303E+001 -2.337362E+001 -1.522283E+002 -2.337315E+001 -1.522276E+002 -4.997898E-001  1.506443E+002
1915.0000     -6.700854E-001  9.642881E+001 -2.267288E+001 -1.547431E+002 -2.267447E+001 -1.547488E+002 -5.483434E-001  1.489637E+002
1920.0000     -6.836525E-001  9.475920E+001 -2.189703E+001 -1.575583E+002 -2.189668E+001 -1.575681E+002 -6.162871E-001  1.470738E+002
1925.0000     -7.006060E-001  9.305855E+001 -2.102544E+001 -1.607900E+002 -2.102723E+001 -1.607878E+002 -7.080808E-001  1.449135E+002
1930.0000     -7.239999E-001  9.133831E+001 -2.004168E+001 -1.645751E+002 -2.004323E+001 -1.645617E+002 -8.447107E-001  1.423839E+002
1935.0000     -7.629027E-001  8.958315E+001 -1.892728E+001 -1.692006E+002 -1.892800E+001 -1.691872E+002 -1.051347E+000  1.393210E+002
1940.0000     -8.183735E-001  8.778181E+001 -1.765834E+001 -1.750715E+002 -1.765666E+001 -1.750409E+002 -1.386231E+000  1.355326E+002
1945.0000     -9.092858E-001  8.597813E+001 -1.622456E+001  1.771464E+002 -1.622526E+001  1.771670E+002 -1.974813E+000  1.307368E+002
1950.0000     -1.050700E+000  8.432035E+001 -1.466101E+001  1.663483E+002 -1.466416E+001  1.663845E+002 -3.096571E+000  1.249216E+002
1955.0000     -1.259028E+000  8.316861E+001 -1.315722E+001  1.509766E+002 -1.316132E+001  1.510104E+002 -5.444483E+000  1.199500E+002
1960.0000     -1.453771E+000  8.317905E+001 -1.219644E+001  1.302300E+002 -1.219801E+001  1.302553E+002 -1.000752E+001  1.311919E+002
1965.0000     -1.434470E+000  8.389146E+001 -1.238396E+001  1.069527E+002 -1.238389E+001  1.069717E+002 -9.504322E+000  1.781153E+002
1970.0000     -1.225005E+000  8.370065E+001 -1.367219E+001  8.677248E+001 -1.366947E+001  8.681049E+001 -5.136369E+000 -1.740061E+002
1975.0000     -1.024795E+000  8.242206E+001 -1.542826E+001  7.201856E+001 -1.542796E+001  7.203486E+001 -2.969016E+000 -1.792691E+002
1980.0000     -8.898215E-001  8.069807E+001 -1.720633E+001  6.163260E+001 -1.720736E+001  6.165758E+001 -1.921016E+000  1.750459E+002
1985.0000     -8.063828E-001  7.889075E+001 -1.884821E+001  5.412168E+001 -1.885007E+001  5.414621E+001 -1.366933E+000  1.704124E+002
1990.0000     -7.586373E-001  7.709727E+001 -2.032828E+001  4.844175E+001 -2.032785E+001  4.847784E+001 -1.045390E+000  1.667475E+002
1995.0000     -7.265348E-001  7.534891E+001 -2.165288E+001  4.396273E+001 -2.165439E+001  4.397185E+001 -8.464903E-001  1.637829E+002
2000.0000     -7.026623E-001  7.365889E+001 -2.284877E+001  4.026209E+001 -2.284698E+001  4.027402E+001 -7.137036E-001  1.613143E+002
2005.0000     -6.871440E-001  7.197260E+001 -2.393166E+001  3.709808E+001 -2.393269E+001  3.712377E+001 -6.216417E-001  1.592307E+002
2010.0000     -6.744954E-001  7.033607E+001 -2.492063E+001  3.433701E+001 -2.492118E+001  3.437925E+001 -5.549746E-001  1.574028E+002
2015.0000     -6.672179E-001  6.872756E+001 -2.583748E+001  3.191427E+001 -2.583633E+001  3.193246E+001 -5.062483E-001  1.557662E+002
2020.0000     -6.613684E-001  6.711682E+001 -2.668398E+001  2.968865E+001 -2.668244E+001  2.966251E+001 -4.683627E-001  1.542898E+002
2025.0000     -6.585536E-001  6.552086E+001 -2.747091E+001  2.760368E+001 -2.747434E+001  2.759907E+001 -4.429241E-001  1.529420E+002
2030.0000     -6.528113E-001  6.395086E+001 -2.820699E+001  2.566565E+001 -2.820644E+001  2.570090E+001 -4.183107E-001  1.516932E+002
2035.0000     -6.513964E-001  6.237209E+001 -2.890266E+001  2.387202E+001 -2.890403E+001  2.389117E+001 -4.006530E-001  1.505160E+002
2040.0000     -6.517233E-001  6.081248E+001 -2.955684E+001  2.214041E+001 -2.955705E+001  2.216363E+001 -3.859959E-001  1.493952E+002
2045.0000     -6.490411E-001  5.925015E+001 -3.017272E+001  2.050574E+001 -3.017655E+001  2.052601E+001 -3.733293E-001  1.483439E+002
2050.0000     -6.489562E-001  5.770433E+001 -3.076422E+001  1.893980E+001 -3.076765E+001  1.890997E+001 -3.623908E-001  1.473050E+002
2055.0000     -6.485360E-001  5.616197E+001 -3.132239E+001  1.739411E+001 -3.132377E+001  1.739713E+001 -3.553719E-001  1.463383E+002
2060.0000     -6.478798E-001  5.459555E+001 -3.185704E+001  1.585998E+001 -3.185499E+001  1.589879E+001 -3.465409E-001  1.453945E+002
2065.0000     -6.473111E-001  5.303927E+001 -3.237064E+001  1.446079E+001 -3.237068E+001  1.442359E+001 -3.405479E-001  1.444668E+002
2070.0000     -6.474033E-001  5.151135E+001 -3.285814E+001  1.301623E+001 -3.285728E+001  1.301398E+001 -3.336974E-001  1.435766E+002
2075.0000     -6.468304E-001  4.996332E+001 -3.333012E+001  1.161395E+001 -3.333335E+001  1.155023E+001 -3.290746E-001  1.426948E+002
2080.0000     -6.459857E-001  4.842640E+001 -3.377647E+001  1.023742E+001 -3.378947E+001  1.022347E+001 -3.255633E-001  1.418385E+002
2085.0000     -6.443768E-001  4.688605E+001 -3.421064E+001  8.846794E+000 -3.420224E+001  8.875460E+000 -3.216017E-001  1.410015E+002
2090.0000     -6.456873E-001  4.534605E+001 -3.463132E+001  7.471038E+000 -3.463513E+001  7.558571E+000 -3.204077E-001  1.401548E+002
2095.0000     -6.449394E-001  4.381356E+001 -3.503097E+001  6.188318E+000 -3.503204E+001  6.144500E+000 -3.160165E-001  1.393536E+002
2100.0000     -6.425583E-001  4.230363E+001 -3.541294E+001  4.844900E+000 -3.541103E+001  4.836420E+000 -3.112168E-001  1.385505E+002
2105.0000     -6.453872E-001  4.076037E+001 -3.578361E+001  3.544688E+000 -3.579094E+001  3.560549E+000 -3.110372E-001  1.377357E+002
2110.0000     -6.447082E-001  3.923578E+001 -3.614589E+001  2.359966E+000 -3.614793E+001  2.331085E+000 -3.096212E-001  1.369742E+002
2115.0000     -6.440785E-001  3.771917E+001 -3.647593E+001  1.121018E+000 -3.648206E+001  1.037413E+000 -3.043413E-001  1.361880E+002
2120.0000     -6.462945E-001  3.620208E+001 -3.682363E+001 -2.175348E-001 -3.681519E+001 -2.195951E-001 -3.063605E-001  1.354158E+002
2125.0000     -6.454599E-001  3.466113E+001 -3.713756E+001 -1.407317E+000 -3.713874E+001 -1.431490E+000 -3.028059E-001  1.346448E+002
2130.0000     -6.479384E-001  3.311249E+001 -3.745388E+001 -2.769819E+000 -3.746263E+001 -2.679353E+000 -3.019578E-001  1.339004E+002
2135.0000     -6.486518E-001  3.159355E+001 -3.775490E+001 -3.953743E+000 -3.775930E+001 -4.007479E+000 -2.999800E-001  1.331548E+002
2140.0000     -6.480770E-001  3.005657E+001 -3.805054E+001 -5.203055E+000 -3.804628E+001 -5.253698E+000 -2.976803E-001  1.324025E+002
2145.0000     -6.485056E-001  2.852704E+001 -3.832281E+001 -6.430902E+000 -3.831472E+001 -6.424126E+000 -2.975352E-001  1.316643E+002
2150.0000     -6.462831E-001  2.699681E+001 -3.860360E+001 -7.727399E+000 -3.859453E+001 -7.714905E+000 -2.978164E-001  1.309173E+002
2155.0000     -6.467869E-001  2.546839E+001 -3.886605E+001 -8.978829E+000 -3.886018E+001 -8.946989E+000 -2.952244E-001  1.301876E+002
2160.0000     -6.469078E-001  2.394290E+001 -3.908882E+001 -1.011576E+001 -3.911131E+001 -1.021562E+001 -2.950912E-001  1.294670E+002
2165.0000     -6.467808E-001  2.242089E+001 -3.934092E+001 -1.143065E+001 -3.934151E+001 -1.138448E+001 -2.952697E-001  1.287318E+002
2170.0000     -6.441320E-001  2.089165E+001 -3.955630E+001 -1.265141E+001 -3.955941E+001 -1.262791E+001 -2.936285E-001  1.280043E+002
2175.0000     -6.469334E-001  1.936631E+001 -3.978510E+001 -1.389494E+001 -3.979041E+001 -1.382837E+001 -2.933616E-001  1.272882E+002
2180.0000     -6.458483E-001  1.785008E+001 -3.998022E+001 -1.508772E+001 -3.997535E+001 -1.500946E+001 -2.920282E-001  1.265750E+002
2185.0000     -6.475053E-001  1.632896E+001 -4.017398E+001 -1.627653E+001 -4.017859E+001 -1.627282E+001 -2.927873E-001  1.258597E+002
2190.0000     -6.478172E-001  1.480330E+001 -4.035591E+001 -1.755823E+001 -4.037381E+001 -1.757166E+001 -2.887127E-001  1.251415E+002
2195.0000     -6.492496E-001  1.328307E+001 -4.052753E+001 -1.875227E+001 -4.053342E+001 -1.872972E+001 -2.923623E-001  1.244399E+002
2200.0000     -6.495784E-001  1.175760E+001 -4.069637E+001 -1.992953E+001 -4.070742E+001 -1.996297E+001 -2.870084E-001  1.237249E+002
2205.0000     -6.494843E-001  1.022572E+001 -4.085847E+001 -2.122716E+001 -4.085413E+001 -2.130245E+001 -2.876310E-001  1.230334E+002
2210.0000     -6.503670E-001  8.701815E+000 -4.097698E+001 -2.247683E+001 -4.099878E+001 -2.238566E+001 -2.881840E-001  1.223295E+002
2215.0000     -6.505547E-001  7.174200E+000 -4.111968E+001 -2.363606E+001 -4.112077E+001 -2.382493E+001 -2.863113E-001  1.216273E+002
2220.0000     -6.498014E-001  5.644373E+000 -4.123494E+001 -2.490648E+001 -4.124943E+001 -2.492412E+001 -2.854566E-001  1.209386E+002
2225.0000     -6.490003E-001  4.107842E+000 -4.133498E+001 -2.616123E+001 -4.135193E+001 -2.625317E+001 -2.858422E-001  1.202325E+002
2250.0000     -6.470184E-001 -3.523721E+000 -4.165821E+001 -3.252130E+001 -4.164235E+001 -3.255168E+001 -2.840769E-001  1.167872E+002
2275.0000     -6.507401E-001 -1.115574E+001 -4.156491E+001 -3.927875E+001 -4.158844E+001 -3.917528E+001 -2.829218E-001  1.133486E+002
2300.0000     -6.513613E-001 -1.885248E+001 -4.088369E+001 -4.653571E+001 -4.086156E+001 -4.643886E+001 -2.834722E-001  1.099163E+002
2325.0000     -6.554606E-001 -2.657489E+001 -3.924178E+001 -5.535950E+001 -3.925043E+001 -5.540889E+001 -2.938126E-001  1.064065E+002
2350.0000     -6.711593E-001 -3.439841E+001 -3.567035E+001 -6.944877E+001 -3.567764E+001 -6.944374E+001 -3.388385E-001  1.025472E+002
2375.0000     -8.347761E-001 -4.215303E+001 -2.798851E+001 -1.244501E+002 -2.798529E+001 -1.243708E+002 -8.727982E-001  9.904324E+001
2400.0000     -6.847250E-001 -4.878172E+001 -3.608443E+001  1.437320E+002 -3.609087E+001  1.437695E+002 -3.939786E-001  9.932429E+001
2425.0000     -6.531339E-001 -5.667730E+001 -4.347701E+001  1.251328E+002 -4.350885E+001  1.251204E+002 -2.977207E-001  9.532701E+001
2450.0000     -6.452929E-001 -6.435139E+001 -4.832534E+001  1.153151E+002 -4.838158E+001  1.154605E+002 -2.757169E-001  9.186175E+001
2475.0000     -6.389533E-001 -7.198373E+001 -5.212162E+001  1.077740E+002 -5.211928E+001  1.077847E+002 -2.697234E-001  8.856559E+001
2500.0000     -6.335685E-001 -7.951071E+001 -5.514679E+001  1.010801E+002 -5.535277E+001  1.008947E+002 -2.638175E-001  8.532790E+001
2525.0000     -6.303111E-001 -8.695374E+001 -5.807014E+001  9.377387E+001 -5.803927E+001  9.519635E+001 -2.573307E-001  8.215422E+001
2550.0000     -6.265836E-001 -9.431638E+001 -6.059746E+001  8.814826E+001 -6.043103E+001  8.809002E+001 -2.571530E-001  7.900448E+001
2575.0000     -6.213923E-001 -1.016504E+002 -6.285605E+001  8.165027E+001 -6.280137E+001  8.117050E+001 -2.530673E-001  7.586198E+001
2600.0000     -6.145884E-001 -1.088535E+002 -6.525597E+001  7.491985E+001 -6.506305E+001  7.550462E+001 -2.481643E-001  7.277429E+001
2625.0000     -6.133260E-001 -1.160232E+002 -6.747495E+001  6.952348E+001 -6.774586E+001  6.920509E+001 -2.474329E-001  6.968582E+001
2650.0000     -6.087207E-001 -1.231572E+002 -6.999574E+001  5.941248E+001 -7.037241E+001  6.528008E+001 -2.436034E-001  6.661864E+001
2675.0000     -6.023402E-001 -1.301991E+002 -7.204746E+001  5.768651E+001 -7.359560E+001  5.606956E+001 -2.387452E-001  6.359029E+001
2700.0000     -5.975700E-001 -1.371758E+002 -7.653217E+001  4.812805E+001 -7.695623E+001  4.797254E+001 -2.416138E-001  6.055570E+001
2725.0000     -5.922032E-001 -1.441299E+002 -8.208361E+001  3.683151E+001 -8.308074E+001  3.990146E+001 -2.371325E-001  5.752130E+001
2750.0000     -5.828159E-001 -1.509906E+002 -8.941224E+001 -1.952268E+001 -9.373885E+001 -1.168277E+000 -2.323415E-001  5.455737E+001
2775.0000     -5.793085E-001 -1.577408E+002 -9.153411E+001 -1.329094E+002 -8.875394E+001 -1.140209E+002 -2.319146E-001  5.158316E+001
2800.0000     -5.751731E-001 -1.644658E+002 -8.481512E+001 -1.404768E+002 -8.482357E+001 -1.339317E+002 -2.284672E-001  4.860070E+001
2825.0000     -5.653327E-001 -1.710433E+002 -7.856412E+001 -1.542131E+002 -7.996392E+001 -1.589646E+002 -2.245047E-001  4.569963E+001
2850.0000     -5.638468E-001 -1.775589E+002 -7.730844E+001 -1.541516E+002 -7.682239E+001 -1.585006E+002 -2.255542E-001  4.278825E+001
2875.0000     -5.563872E-001  1.759767E+002 -7.479887E+001 -1.565941E+002 -7.466392E+001 -1.617691E+002 -2.212207E-001  3.985849E+001
2900.0000     -5.508611E-001  1.696713E+002 -7.396651E+001 -1.685850E+002 -7.354405E+001 -1.635699E+002 -2.169849E-001  3.701480E+001
2925.0000     -5.513889E-001  1.634063E+002 -7.276662E+001 -1.690555E+002 -7.244044E+001 -1.684488E+002 -2.212414E-001  3.414202E+001
2950.0000     -5.490791E-001  1.571657E+002 -7.301762E+001  3.077831E+000 -7.193667E+001  3.837637E+000 -2.169413E-001  3.123879E+001
2975.0000     -5.421117E-001  1.510319E+002 -7.117770E+001  4.537472E-001 -7.126010E+001  3.153940E+000 -2.132143E-001  2.840516E+001
3000.0000     -5.411633E-001  1.449486E+002 -7.024738E+001 -3.649866E+000 -7.050308E+001  1.273829E+000 -2.156418E-001  2.555219E+001
3025.0000     -5.404166E-001  1.388741E+002 -6.976360E+001 -9.097516E+000 -6.979895E+001 -5.657731E+000 -2.158733E-001  2.263215E+001
3050.0000     -5.372436E-001  1.328948E+002 -6.879475E+001 -1.281247E+001 -6.946830E+001 -1.142120E+001 -2.117169E-001  1.975508E+001
3075.0000     -5.370928E-001  1.269492E+002 -6.899337E+001 -1.498662E+001 -6.941698E+001 -1.464422E+001 -2.171976E-001  1.684918E+001
3100.0000     -5.357307E-001  1.210570E+002 -6.801223E+001 -2.011765E+001 -6.863845E+001 -1.806419E+001 -2.156271E-001  1.386762E+001
3125.0000     -5.342451E-001  1.152235E+002 -6.812204E+001 -2.465595E+001 -6.791831E+001 -2.437560E+001 -2.135619E-001  1.092141E+001
3150.0000     -5.342875E-001  1.094578E+002 -6.757627E+001 -2.788660E+001 -6.752460E+001 -2.890742E+001 -2.171500E-001  7.937949E+000
3175.0000     -5.320923E-001  1.037349E+002 -6.721362E+001 -3.097062E+001 -6.733211E+001 -2.990600E+001 -2.184124E-001  4.914447E+000
3200.0000     -5.351933E-001  9.809628E+001 -6.706926E+001 -3.580132E+001 -6.686462E+001 -3.735662E+001 -2.145518E-001  1.908539E+000
3225.0000     -5.350620E-001  9.247738E+001 -6.653764E+001 -3.935180E+001 -6.671526E+001 -4.015863E+001 -2.173553E-001 -1.108168E+000
3250.0000     -5.383348E-001  8.695574E+001 -6.647231E+001 -4.399029E+001 -6.624012E+001 -4.218274E+001 -2.179983E-001 -4.163274E+000
3275.0000     -5.461785E-001  8.145464E+001 -6.625490E+001 -4.515701E+001 -6.589185E+001 -4.715320E+001 -2.146078E-001 -7.156572E+000
3300.0000     -5.573992E-001  7.597145E+001 -6.570668E+001 -5.041988E+001 -6.571737E+001 -5.256227E+001 -2.203913E-001 -1.017265E+001
3325.0000     -5.732054E-001  7.054810E+001 -6.543377E+001 -5.744925E+001 -6.522842E+001 -5.781320E+001 -2.188029E-001 -1.320305E+001
3350.0000     -6.010736E-001  6.514808E+001 -6.490836E+001 -6.119954E+001 -6.502277E+001 -6.122038E+001 -2.184127E-001 -1.616267E+001
3375.0000     -6.443886E-001  5.982323E+001 -6.441711E+001 -6.787030E+001 -6.459080E+001 -6.724664E+001 -2.201005E-001 -1.912678E+001
3400.0000     -6.985427E-001  5.474810E+001 -6.417348E+001 -7.590163E+001 -6.412943E+001 -7.734587E+001 -2.233193E-001 -2.212744E+001
3425.0000     -7.283633E-001  4.997310E+001 -6.427335E+001 -8.440311E+001 -6.432524E+001 -8.631117E+001 -2.211176E-001 -2.509533E+001
3450.0000     -6.961339E-001  4.510925E+001 -6.509577E+001 -9.222257E+001 -6.513229E+001 -9.407290E+001 -2.277693E-001 -2.805879E+001
3475.0000     -6.434274E-001  3.997554E+001 -6.587085E+001 -9.723888E+001 -6.624030E+001 -9.580192E+001 -2.294862E-001 -3.105761E+001
3500.0000     -6.149428E-001  3.462020E+001 -6.663969E+001 -1.004491E+002 -6.622488E+001 -9.664669E+001 -2.284920E-001 -3.405819E+001
3525.0000     -6.037518E-001  2.914036E+001 -6.661411E+001 -9.824911E+001 -6.661514E+001 -9.912758E+001 -2.334115E-001 -3.704236E+001
3550.0000     -5.991074E-001  2.360564E+001 -6.654815E+001 -1.010310E+002 -6.633382E+001 -1.035475E+002 -2.365971E-001 -4.009866E+001
3575.0000     -6.092222E-001  1.798499E+001 -6.605849E+001 -1.024153E+002 -6.599583E+001 -1.032812E+002 -2.372396E-001 -4.309940E+001
3600.0000     -6.281021E-001  1.216187E+001 -6.545249E+001 -1.065985E+002 -6.543997E+001 -1.058147E+002 -2.444171E-001 -4.612584E+001
3625.0000     -6.537694E-001  6.133935E+000 -6.449802E+001 -1.095787E+002 -6.456333E+001 -1.084995E+002 -2.457496E-001 -4.916467E+001
3650.0000     -6.991411E-001 -2.325727E-001 -6.328100E+001 -1.115289E+002 -6.319151E+001 -1.132145E+002 -2.477060E-001 -5.219848E+001
3675.0000     -7.694345E-001 -7.160192E+000 -6.135146E+001 -1.170625E+002 -6.143709E+001 -1.179232E+002 -2.533073E-001 -5.522301E+001
3700.0000     -8.767782E-001 -1.484909E+001 -5.886916E+001 -1.243351E+002 -5.897791E+001 -1.257198E+002 -2.575260E-001 -5.824999E+001
3725.0000     -1.087748E+000 -2.392428E+001 -5.552329E+001 -1.351189E+002 -5.548116E+001 -1.353370E+002 -2.638896E-001 -6.127441E+001
3750.0000     -1.551612E+000 -3.578504E+001 -5.095576E+001 -1.490289E+002 -5.096186E+001 -1.494584E+002 -2.739907E-001 -6.429211E+001
3775.0000     -2.980488E+000 -5.374558E+001 -4.517936E+001 -1.743588E+002 -4.522207E+001 -1.745107E+002 -2.864213E-001 -6.732076E+001
3800.0000     -1.080707E+001 -7.944695E+001 -3.956555E+001  1.384044E+002 -3.956076E+001  1.380676E+002 -3.002054E-001 -7.026545E+001
3825.0000     -6.899084E+000  2.047916E+001 -3.884819E+001  7.785397E+001 -3.884787E+001  7.739680E+001 -3.041358E-001 -7.319150E+001
3850.0000     -2.545977E+000 -5.903134E+000 -4.107548E+001  4.408743E+001 -4.112481E+001  4.374809E+001 -2.994997E-001 -7.622656E+001
3875.0000     -1.671196E+000 -2.315306E+001 -4.222676E+001  2.810383E+001 -4.225885E+001  2.792858E+001 -2.974911E-001 -7.927550E+001
3900.0000     -1.484676E+000 -3.665025E+001 -4.206433E+001  1.754237E+001 -4.210234E+001  1.740494E+001 -3.026747E-001 -8.235448E+001
3925.0000     -1.578915E+000 -4.939619E+001 -4.099475E+001  7.717577E+000 -4.102398E+001  7.699258E+000 -3.062215E-001 -8.549517E+001
3950.0000     -1.952848E+000 -6.341208E+001 -3.925305E+001 -2.986838E+000 -3.926372E+001 -2.968268E+000 -3.078991E-001 -8.861752E+001
3975.0000     -2.835737E+000 -8.115266E+001 -3.695773E+001 -1.644911E+001 -3.696709E+001 -1.650112E+001 -3.149934E-001 -9.176852E+001
4000.0000     -5.070314E+000 -1.076204E+002 -3.431324E+001 -3.549107E+001 -3.432584E+001 -3.552959E+001 -3.227352E-001 -9.495304E+001
4025.0000     -1.164553E+001 -1.634928E+002 -3.202628E+001 -6.303335E+001 -3.203209E+001 -6.304593E+001 -3.301201E-001 -9.813896E+001
4050.0000     -9.978509E+000  5.823999E+001 -3.133590E+001 -9.574059E+001 -3.133926E+001 -9.567877E+001 -3.344683E-001 -1.013243E+002
4075.0000     -4.304153E+000  1.024781E+001 -3.222973E+001 -1.228317E+002 -3.223472E+001 -1.228279E+002 -3.405529E-001 -1.045344E+002
4100.0000     -2.370568E+000 -1.454099E+001 -3.346322E+001 -1.415804E+002 -3.346241E+001 -1.416333E+002 -3.459505E-001 -1.077889E+002
4125.0000     -1.595806E+000 -3.109678E+001 -3.444209E+001 -1.549698E+002 -3.443622E+001 -1.549510E+002 -3.506763E-001 -1.110339E+002
4150.0000     -1.234961E+000 -4.368628E+001 -3.505058E+001 -1.654860E+002 -3.505478E+001 -1.654375E+002 -3.560713E-001 -1.142844E+002
4175.0000     -1.069406E+000 -5.418386E+001 -3.531247E+001 -1.744959E+002 -3.531026E+001 -1.745126E+002 -3.644727E-001 -1.175709E+002
4200.0000     -1.015367E+000 -6.371091E+001 -3.523870E+001  1.771094E+002 -3.524069E+001  1.771300E+002 -3.680023E-001 -1.208638E+002
4225.0000     -1.050068E+000 -7.276215E+001 -3.488222E+001  1.687456E+002 -3.488149E+001  1.687797E+002 -3.741664E-001 -1.241277E+002
4250.0000     -1.185642E+000 -8.146377E+001 -3.430398E+001  1.602358E+002 -3.430737E+001  1.602172E+002 -3.853836E-001 -1.274520E+002
4275.0000     -1.326914E+000 -9.029362E+001 -3.344165E+001  1.521147E+002 -3.345096E+001  1.521082E+002 -3.873491E-001 -1.307559E+002
4300.0000     -1.540752E+000 -1.009182E+002 -3.204269E+001  1.429337E+002 -3.204597E+001  1.429321E+002 -3.974144E-001 -1.340567E+002
4325.0000     -2.115819E+000 -1.146791E+002 -3.012260E+001  1.305977E+002 -3.012881E+001  1.306476E+002 -4.098269E-001 -1.374280E+002
4350.0000     -3.710235E+000 -1.343960E+002 -2.776055E+001  1.125947E+002 -2.775931E+001  1.126108E+002 -4.170940E-001 -1.407658E+002
4375.0000     -9.512419E+000 -1.667118E+002 -2.552734E+001  8.402689E+001 -2.552172E+001  8.402709E+001 -4.345570E-001 -1.440403E+002
4400.0000     -1.443705E+001 -1.078081E+001 -2.518141E+001  4.624337E+001 -2.518341E+001  4.622759E+001 -4.493338E-001 -1.473346E+002
4425.0000     -4.973431E+000 -4.903889E+001 -2.707126E+001  1.520402E+001 -2.707063E+001  1.519657E+001 -4.391411E-001 -1.506756E+002
4450.0000     -2.750098E+000 -7.011315E+001 -2.931383E+001 -4.637565E+000 -2.931531E+001 -4.622422E+000 -4.407736E-001 -1.540605E+002
4475.0000     -1.950454E+000 -8.385638E+001 -3.109240E+001 -1.800926E+001 -3.109794E+001 -1.803550E+001 -4.506274E-001 -1.575343E+002
4500.0000     -1.589760E+000 -9.400936E+001 -3.232618E+001 -2.828338E+001 -3.232407E+001 -2.831286E+001 -4.557451E-001 -1.611051E+002
4525.0000     -1.379457E+000 -1.022203E+002 -3.302227E+001 -3.710744E+001 -3.303003E+001 -3.712344E+001 -4.693928E-001 -1.646978E+002
4550.0000     -1.232573E+000 -1.093854E+002 -3.315814E+001 -4.552995E+001 -3.315896E+001 -4.553571E+001 -4.996754E-001 -1.685026E+002
4575.0000     -1.112972E+000 -1.160080E+002 -3.259321E+001 -5.446578E+001 -3.259686E+001 -5.442654E+001 -5.387831E-001 -1.726696E+002
4600.0000     -1.018624E+000 -1.223987E+002 -3.094797E+001 -6.624181E+001 -3.095980E+001 -6.614297E+001 -6.709064E-001 -1.776069E+002
4625.0000     -9.742190E-001 -1.287320E+002 -2.729172E+001 -9.142603E+001 -2.726901E+001 -9.115787E+001 -1.380914E+000  1.755081E+002
4650.0000     -9.610794E-001 -1.341976E+002 -2.698942E+001 -1.706528E+002 -2.687093E+001 -1.709468E+002 -2.438912E+000 -1.716909E+002
4675.0000     -8.475978E-001 -1.402305E+002 -3.658997E+001  1.510018E+002 -3.654852E+001  1.501039E+002 -8.113536E-001 -1.769084E+002
4700.0000     -8.111581E-001 -1.464316E+002 -4.491330E+001  1.483117E+002 -4.491299E+001  1.471008E+002 -5.987856E-001  1.774530E+002
4725.0000     -7.885829E-001 -1.526169E+002 -5.231052E+001  1.750491E+002 -5.247819E+001  1.738137E+002 -5.345954E-001  1.729524E+002
4750.0000     -7.856328E-001 -1.588180E+002 -5.259301E+001 -1.358077E+002 -5.287399E+001 -1.348160E+002 -5.141404E-001  1.689979E+002
4775.0000     -7.960964E-001 -1.651245E+002 -4.932140E+001 -1.193917E+002 -4.947476E+001 -1.182996E+002 -5.147837E-001  1.651984E+002
4800.0000     -8.075899E-001 -1.715568E+002 -4.683437E+001 -1.170582E+002 -4.690650E+001 -1.162984E+002 -5.076024E-001  1.614686E+002
4825.0000     -8.351198E-001 -1.780896E+002 -4.484912E+001 -1.197112E+002 -4.490271E+001 -1.191109E+002 -5.079111E-001  1.578901E+002
4850.0000     -8.824984E-001  1.751300E+002 -4.314366E+001 -1.247452E+002 -4.318518E+001 -1.240135E+002 -5.209683E-001  1.542920E+002
4875.0000     -9.377203E-001  1.680552E+002 -4.146797E+001 -1.314141E+002 -4.149887E+001 -1.306061E+002 -5.263745E-001  1.506727E+002
4900.0000     -1.027029E+000  1.607183E+002 -3.975986E+001 -1.397102E+002 -3.979358E+001 -1.389470E+002 -5.427650E-001  1.471182E+002
4925.0000     -1.168576E+000  1.527723E+002 -3.798481E+001 -1.511478E+002 -3.797219E+001 -1.500541E+002 -5.826542E-001  1.434898E+002
4950.0000     -1.366939E+000  1.440771E+002 -3.616553E+001 -1.679544E+002 -3.607710E+001 -1.665902E+002 -6.394551E-001  1.398937E+002
4975.0000     -1.702520E+000  1.344493E+002 -3.513048E+001  1.656798E+002 -3.488327E+001  1.669025E+002 -7.419784E-001  1.367516E+002
5000.0000     -2.255848E+000  1.228323E+002 -3.707347E+001  1.329382E+002 -3.672868E+001  1.327596E+002 -7.627937E-001  1.340843E+002
5025.0000     -3.340873E+000  1.073405E+002 -4.330075E+001  1.122944E+002 -4.300863E+001  1.107646E+002 -6.665918E-001  1.306718E+002
5050.0000     -6.176832E+000  8.493551E+001 -6.041629E+001 -9.736234E+001 -6.201040E+001 -9.376065E+001 -6.512519E-001  1.266340E+002
5075.0000     -1.734414E+001  4.532200E+001 -3.517188E+001 -1.017196E+002 -3.527840E+001 -1.013052E+002 -7.651069E-001  1.219735E+002
5100.0000     -1.062624E+001 -1.520685E+002 -2.457180E+001 -1.447489E+002 -2.461165E+001 -1.444280E+002 -1.252016E+000  1.171713E+002
5125.0000     -5.379488E+000 -1.774678E+002 -1.988605E+001  1.424000E+002 -1.988197E+001  1.426322E+002 -1.911213E+000  1.205962E+002
5150.0000     -2.898404E+000  1.651930E+002 -2.266873E+001  8.879794E+001 -2.265864E+001  8.888035E+001 -1.053201E+000  1.198585E+002
5175.0000     -1.891495E+000  1.499090E+002 -2.565484E+001  6.339459E+001 -2.565078E+001  6.342869E+001 -7.343041E-001  1.152736E+002
5200.0000     -1.452273E+000  1.379083E+002 -2.772327E+001  4.800503E+001 -2.772052E+001  4.802451E+001 -6.308762E-001  1.111353E+002
5225.0000     -1.251039E+000  1.277584E+002 -2.914424E+001  3.664329E+001 -2.914470E+001  3.665771E+001 -5.957216E-001  1.072357E+002
5250.0000     -1.141742E+000  1.186114E+002 -3.008455E+001  2.695480E+001 -3.008551E+001  2.700986E+001 -5.636506E-001  1.034508E+002
5275.0000     -1.085085E+000  1.101976E+002 -3.065741E+001  1.833516E+001 -3.065796E+001  1.831742E+001 -5.501603E-001  9.987696E+001
5300.0000     -1.076321E+000  1.020978E+002 -3.092807E+001  1.004565E+001 -3.093403E+001  1.004615E+001 -5.508780E-001  9.631677E+001
5325.0000     -1.091218E+000  9.409747E+001 -3.091506E+001  1.335941E+000 -3.091434E+001  1.325002E+000 -5.468993E-001  9.275896E+001
5350.0000     -1.129569E+000  8.619441E+001 -3.058738E+001 -8.104108E+000 -3.058353E+001 -8.065734E+000 -5.496124E-001  8.928077E+001
5375.0000     -1.231421E+000  7.823307E+001 -2.995190E+001 -1.927905E+001 -2.995199E+001 -1.925387E+001 -5.675452E-001  8.579038E+001
5400.0000     -1.459498E+000  7.042605E+001 -2.911011E+001 -3.409527E+001 -2.911352E+001 -3.410177E+001 -5.963971E-001  8.231541E+001
5425.0000     -1.673142E+000  6.423896E+001 -2.824394E+001 -5.242862E+001 -2.825478E+001 -5.237326E+001 -6.582696E-001  7.896582E+001
5450.0000     -1.769650E+000  5.777779E+001 -2.737773E+001 -8.076799E+001 -2.737613E+001 -8.067392E+001 -7.593506E-001  7.613906E+001
5475.0000     -1.755179E+000  5.204859E+001 -2.897257E+001 -1.170449E+002 -2.896411E+001 -1.170250E+002 -7.381285E-001  7.383155E+001
5500.0000     -1.578235E+000  4.504904E+001 -3.279879E+001 -1.432366E+002 -3.278817E+001 -1.432500E+002 -6.316177E-001  7.084445E+001
5525.0000     -1.480601E+000  3.706231E+001 -3.703556E+001 -1.571073E+002 -3.702863E+001 -1.571512E+002 -5.725020E-001  6.746712E+001
5550.0000     -1.455697E+000  2.882937E+001 -4.115260E+001 -1.623399E+002 -4.115701E+001 -1.623251E+002 -5.404916E-001  6.402328E+001
5575.0000     -1.474030E+000  2.047504E+001 -4.501630E+001 -1.593896E+002 -4.502880E+001 -1.593388E+002 -5.209469E-001  6.060079E+001
5600.0000     -1.510214E+000  1.192756E+001 -4.817482E+001 -1.468018E+002 -4.819146E+001 -1.468668E+002 -5.148993E-001  5.718462E+001
5625.0000     -1.562757E+000  3.199602E+000 -4.950293E+001 -1.274015E+002 -4.951482E+001 -1.275905E+002 -5.058646E-001  5.380923E+001
5650.0000     -1.631251E+000 -5.800578E+000 -4.880394E+001 -1.121716E+002 -4.881715E+001 -1.120412E+002 -5.029241E-001  5.042070E+001
5675.0000     -1.705172E+000 -1.519184E+001 -4.738132E+001 -1.050273E+002 -4.742289E+001 -1.052148E+002 -4.984948E-001  4.703714E+001
5700.0000     -1.783179E+000 -2.487785E+001 -4.597095E+001 -1.038234E+002 -4.599576E+001 -1.037192E+002 -4.945345E-001  4.370868E+001
5725.0000     -1.881917E+000 -3.496728E+001 -4.463556E+001 -1.053118E+002 -4.465932E+001 -1.051800E+002 -4.911397E-001  4.035995E+001
5750.0000     -1.981770E+000 -4.555976E+001 -4.341416E+001 -1.088766E+002 -4.342287E+001 -1.089739E+002 -4.879704E-001  3.700373E+001
5775.0000     -2.092517E+000 -5.650126E+001 -4.223989E+001 -1.138997E+002 -4.222831E+001 -1.138170E+002 -4.832880E-001  3.368399E+001
5800.0000     -2.229078E+000 -6.793795E+001 -4.111373E+001 -1.196736E+002 -4.109508E+001 -1.196647E+002 -4.795516E-001  3.038715E+001
5825.0000     -2.390664E+000 -7.990173E+001 -3.996712E+001 -1.263838E+002 -3.998399E+001 -1.263822E+002 -4.768787E-001  2.708743E+001
5850.0000     -2.605449E+000 -9.208649E+001 -3.885799E+001 -1.334209E+002 -3.885305E+001 -1.334029E+002 -4.733241E-001  2.382683E+001
5875.0000     -2.874169E+000 -1.041279E+002 -3.767111E+001 -1.408562E+002 -3.767468E+001 -1.407135E+002 -4.729475E-001  2.055214E+001
5900.0000     -3.031836E+000 -1.157801E+002 -3.630550E+001 -1.482666E+002 -3.630809E+001 -1.481929E+002 -4.710706E-001  1.730729E+001
5925.0000     -3.011842E+000 -1.283920E+002 -3.469117E+001 -1.568279E+002 -3.468500E+001 -1.568465E+002 -4.695667E-001  1.407917E+001
5950.0000     -3.003926E+000 -1.427523E+002 -3.285340E+001 -1.669972E+002 -3.284293E+001 -1.669567E+002 -4.700892E-001  1.081996E+001
5975.0000     -3.123631E+000 -1.585990E+002 -3.072349E+001 -1.790258E+002 -3.072356E+001 -1.789828E+002 -4.697069E-001  7.562295E+000
6000.0000     -3.523807E+000 -1.763437E+002 -2.818858E+001  1.657923E+002 -2.818555E+001  1.658993E+002 -4.815114E-001  4.322728E+000
