! Mini-Circuits
! S2P DATA File Format
! Type: BAND PASS FILTER
! Model: ZABP-587-S+
! All S Parameters are in MAG PHASE format
! TEST CONDITIONS: INPUT POWER = 0 dBm @ Temperature = +25deg C
!
# MHz S DB R 50
!
!FREQ   MAG(S11)PHS(S11) MAG(S21)PHS(S21)MAG(S12)PHS(S12)MAG(S22)PHS(S22)
    .5000     -1.479105E-003 -2.060569E-001 -1.034824E+002 -4.793469E+001 -9.985713E+001  6.644057E+001  2.553655E-003 -3.656406E-001
   1.0000     -1.430939E-003 -3.899828E-001 -9.741980E+001  1.073761E+002 -1.041048E+002 -3.056801E+001 -2.689910E-003 -7.729108E-001
   1.5000     -9.519303E-005 -5.655387E-001 -1.079556E+002 -1.588075E+002 -9.934802E+001  1.888211E+001 -4.804496E-003 -1.151003E+000
   2.0000     -2.190843E-003 -7.616805E-001 -1.043991E+002  2.207565E+000 -1.011141E+002  8.831868E+001 -4.238796E-003 -1.528158E+000
   2.5000      2.251811E-004 -9.503715E-001 -1.001150E+002  7.203988E+001 -9.937868E+001  1.594317E+002 -3.493735E-003 -1.895493E+000
   3.0000      1.863888E-003 -1.144649E+000 -9.887765E+001 -5.357116E+001 -1.062477E+002  4.081287E+000 -3.354016E-004 -2.252458E+000
   3.5000     -8.142565E-004 -1.323790E+000 -1.187529E+002 -3.175570E+001 -9.671433E+001  1.449663E+002 -2.383187E-003 -2.636721E+000
   4.0000     -6.693705E-004 -1.514829E+000 -1.192669E+002 -2.215297E+001 -1.050414E+002 -2.275856E+001 -4.994056E-004 -3.003972E+000
   4.5000     -1.444716E-003 -1.698759E+000 -1.064176E+002 -1.603843E+002 -9.796151E+001  6.164128E+001 -1.978173E-003 -3.381290E+000
   5.0000     -4.621345E-004 -1.900487E+000 -9.843800E+001 -1.729447E+002 -9.771180E+001  1.146628E+002 -1.851041E-003 -3.747307E+000
  10.0000     -1.799610E-003 -3.790877E+000 -9.612827E+001  1.522652E+002 -9.313794E+001  1.038112E+002 -2.998452E-003 -7.498354E+000
  15.0000     -1.437223E-003 -5.667483E+000 -9.666330E+001  7.901610E+001 -9.741824E+001  1.273728E+002 -5.115817E-003 -1.125326E+001
  20.0000     -4.231035E-003 -7.553092E+000 -9.775488E+001  3.206735E+001 -8.882178E+001  7.685481E+001 -1.137692E-002 -1.499897E+001
  25.0000     -3.430555E-003 -9.437921E+000 -8.878714E+001  7.606133E+001 -9.005927E+001  6.581048E+001 -1.080539E-002 -1.874481E+001
  30.0000     -4.108580E-003 -1.133351E+001 -9.182488E+001  2.988512E+001 -9.024727E+001  7.020858E+001 -1.330030E-002 -2.252717E+001
  35.0000     -4.349875E-003 -1.321909E+001 -8.800848E+001  6.887357E+001 -8.938940E+001  6.341230E+001 -1.559406E-002 -2.631391E+001
  40.0000     -5.902297E-003 -1.510610E+001 -8.920100E+001  7.971548E+001 -8.878789E+001  6.634144E+001 -2.029577E-002 -3.011637E+001
  45.0000     -7.030338E-003 -1.699325E+001 -8.500586E+001  5.669793E+001 -8.563816E+001  3.715030E+001 -2.374212E-002 -3.394726E+001
  50.0000     -8.014964E-003 -1.889256E+001 -8.491025E+001  6.082691E+001 -8.528915E+001  6.907126E+001 -2.686533E-002 -3.780007E+001
  55.0000     -9.502121E-003 -2.078949E+001 -8.379774E+001  6.787156E+001 -8.295395E+001  6.342321E+001 -3.169004E-002 -4.167385E+001
  60.0000     -1.040068E-002 -2.269995E+001 -8.168574E+001  5.659912E+001 -8.351801E+001  6.090825E+001 -3.735679E-002 -4.557780E+001
  65.0000     -1.113349E-002 -2.460558E+001 -8.197714E+001  4.587352E+001 -8.096044E+001  4.535982E+001 -4.070333E-002 -4.952326E+001
  70.0000     -1.232517E-002 -2.651214E+001 -8.137993E+001  4.982602E+001 -8.211283E+001  4.086368E+001 -4.313985E-002 -5.347790E+001
  75.0000     -1.347596E-002 -2.843384E+001 -8.037448E+001  4.999804E+001 -7.992593E+001  4.910438E+001 -5.028050E-002 -5.749081E+001
  80.0000     -1.444221E-002 -3.034227E+001 -7.933611E+001  4.536159E+001 -7.909425E+001  4.227098E+001 -5.807813E-002 -6.153090E+001
  85.0000     -1.711228E-002 -3.226173E+001 -7.917966E+001  3.961663E+001 -7.835899E+001  4.368919E+001 -6.286224E-002 -6.560490E+001
  90.0000     -1.817645E-002 -3.419440E+001 -7.852734E+001  3.586233E+001 -7.789668E+001  3.650066E+001 -6.737196E-002 -6.972502E+001
  95.0000     -1.800194E-002 -3.611543E+001 -7.634426E+001  3.518402E+001 -7.729324E+001  3.726660E+001 -7.577822E-002 -7.389988E+001
 100.0000     -2.025205E-002 -3.804735E+001 -7.620607E+001  3.509654E+001 -7.579220E+001  3.182676E+001 -8.303460E-002 -7.809164E+001
 105.0000     -2.126247E-002 -3.999557E+001 -7.514718E+001  2.452964E+001 -7.518269E+001  2.837255E+001 -9.302769E-002 -8.235671E+001
 110.0000     -2.459832E-002 -4.195123E+001 -7.421806E+001  2.589317E+001 -7.391463E+001  2.441158E+001 -1.001365E-001 -8.665829E+001
 115.0000     -2.629733E-002 -4.390680E+001 -7.350319E+001  1.862973E+001 -7.322476E+001  2.492831E+001 -1.096515E-001 -9.100270E+001
 120.0000     -2.743885E-002 -4.586629E+001 -7.226814E+001  1.802657E+001 -7.245048E+001  2.061224E+001 -1.204582E-001 -9.541515E+001
 125.0000     -3.054420E-002 -4.784247E+001 -7.153478E+001  1.438429E+001 -7.098387E+001  1.496665E+001 -1.313477E-001 -9.984380E+001
 130.0000     -3.288699E-002 -4.982270E+001 -7.026817E+001  1.152702E+001 -7.016219E+001  1.297694E+001 -1.430517E-001 -1.043449E+002
 135.0000     -3.534202E-002 -5.181184E+001 -6.912884E+001  9.293329E+000 -6.918787E+001  9.581897E+000 -1.538908E-001 -1.088724E+002
 140.0000     -3.764181E-002 -5.379934E+001 -6.825419E+001  4.849373E+000 -6.814154E+001  4.579433E+000 -1.652993E-001 -1.134677E+002
 145.0000     -4.097004E-002 -5.581438E+001 -6.741753E+001  2.451041E+000 -6.703564E+001  1.412514E+000 -1.777943E-001 -1.180897E+002
 150.0000     -4.179676E-002 -5.783175E+001 -6.621234E+001 -2.421891E+000 -6.604665E+001 -2.032795E+000 -1.905825E-001 -1.227687E+002
 155.0000     -4.527384E-002 -5.985303E+001 -6.507050E+001 -4.240150E+000 -6.514967E+001 -4.751976E+000 -2.040164E-001 -1.274662E+002
 160.0000     -4.844379E-002 -6.188252E+001 -6.394572E+001 -8.040789E+000 -6.409994E+001 -7.597600E+000 -2.178515E-001 -1.322101E+002
 165.0000     -5.297551E-002 -6.392945E+001 -6.300474E+001 -1.195649E+001 -6.289899E+001 -1.213913E+001 -2.312721E-001 -1.370050E+002
 170.0000     -5.335890E-002 -6.599257E+001 -6.194538E+001 -1.498898E+001 -6.185588E+001 -1.575292E+001 -2.451471E-001 -1.418122E+002
 175.0000     -5.729869E-002 -6.805730E+001 -6.086728E+001 -1.878487E+001 -6.104861E+001 -1.877370E+001 -2.595635E-001 -1.466731E+002
 180.0000     -6.243135E-002 -7.015169E+001 -5.980309E+001 -2.201620E+001 -5.982860E+001 -2.245426E+001 -2.720352E-001 -1.515518E+002
 185.0000     -6.338792E-002 -7.225373E+001 -5.891663E+001 -2.618557E+001 -5.882197E+001 -2.566099E+001 -2.860931E-001 -1.564571E+002
 190.0000     -6.876492E-002 -7.436230E+001 -5.779401E+001 -2.920142E+001 -5.791056E+001 -2.922842E+001 -2.992238E-001 -1.613827E+002
 195.0000     -7.202251E-002 -7.648904E+001 -5.682184E+001 -3.254226E+001 -5.680143E+001 -3.291119E+001 -3.137059E-001 -1.663479E+002
 200.0000     -7.695235E-002 -7.863064E+001 -5.590878E+001 -3.649927E+001 -5.590952E+001 -3.668971E+001 -3.217038E-001 -1.713087E+002
 205.0000     -8.154870E-002 -8.080146E+001 -5.496630E+001 -4.012951E+001 -5.494109E+001 -4.018623E+001 -3.372561E-001 -1.762811E+002
 210.0000     -8.644051E-002 -8.298535E+001 -5.399207E+001 -4.388384E+001 -5.398520E+001 -4.398410E+001 -3.486711E-001  1.787402E+002
 215.0000     -9.022095E-002 -8.518550E+001 -5.308177E+001 -4.746790E+001 -5.306490E+001 -4.746994E+001 -3.592943E-001  1.737502E+002
 220.0000     -9.546146E-002 -8.740148E+001 -5.215121E+001 -5.095030E+001 -5.213608E+001 -5.072540E+001 -3.676705E-001  1.687908E+002
 225.0000     -9.904880E-002 -8.965173E+001 -5.123352E+001 -5.450429E+001 -5.123019E+001 -5.427766E+001 -3.765349E-001  1.638117E+002
 230.0000     -1.039979E-001 -9.191275E+001 -5.035877E+001 -5.795106E+001 -5.035728E+001 -5.779472E+001 -3.846942E-001  1.588485E+002
 235.0000     -1.088474E-001 -9.420158E+001 -4.947499E+001 -6.150896E+001 -4.947506E+001 -6.148785E+001 -3.932453E-001  1.539162E+002
 240.0000     -1.150015E-001 -9.651888E+001 -4.864800E+001 -6.519953E+001 -4.866484E+001 -6.533870E+001 -3.990080E-001  1.489614E+002
 245.0000     -1.209110E-001 -9.884245E+001 -4.779235E+001 -6.875671E+001 -4.781059E+001 -6.883030E+001 -4.067579E-001  1.440661E+002
 250.0000     -1.252131E-001 -1.012161E+002 -4.698177E+001 -7.230814E+001 -4.699906E+001 -7.255437E+001 -4.108820E-001  1.391701E+002
 255.0000     -1.329906E-001 -1.036097E+002 -4.619908E+001 -7.603452E+001 -4.618642E+001 -7.586236E+001 -4.135701E-001  1.342963E+002
 260.0000     -1.387905E-001 -1.060355E+002 -4.539529E+001 -7.963816E+001 -4.542810E+001 -7.954599E+001 -4.173774E-001  1.294497E+002
 265.0000     -1.446096E-001 -1.085008E+002 -4.464289E+001 -8.309435E+001 -4.463803E+001 -8.320329E+001 -4.176847E-001  1.246280E+002
 270.0000     -1.505249E-001 -1.109923E+002 -4.387338E+001 -8.681590E+001 -4.387014E+001 -8.670742E+001 -4.195941E-001  1.198289E+002
 275.0000     -1.588661E-001 -1.135373E+002 -4.314475E+001 -9.041178E+001 -4.312530E+001 -9.042189E+001 -4.212252E-001  1.150607E+002
 280.0000     -1.647234E-001 -1.161062E+002 -4.244081E+001 -9.393735E+001 -4.240932E+001 -9.407865E+001 -4.207015E-001  1.103233E+002
 285.0000     -1.707808E-001 -1.187331E+002 -4.170641E+001 -9.770779E+001 -4.169309E+001 -9.770123E+001 -4.188908E-001  1.056096E+002
 290.0000     -1.794057E-001 -1.214230E+002 -4.101340E+001 -1.014450E+002 -4.102019E+001 -1.012785E+002 -4.184961E-001  1.009057E+002
 295.0000     -1.880202E-001 -1.241197E+002 -4.033005E+001 -1.050189E+002 -4.033002E+001 -1.049342E+002 -4.172264E-001  9.624178E+001
 300.0000     -1.964956E-001 -1.268994E+002 -3.967134E+001 -1.086516E+002 -3.967729E+001 -1.087488E+002 -4.151142E-001  9.157410E+001
 305.0000     -2.042964E-001 -1.297308E+002 -3.902112E+001 -1.123912E+002 -3.901913E+001 -1.124246E+002 -4.110071E-001  8.694435E+001
 310.0000     -2.131291E-001 -1.326126E+002 -3.839138E+001 -1.160666E+002 -3.839457E+001 -1.161589E+002 -4.087338E-001  8.232347E+001
 315.0000     -2.228876E-001 -1.355867E+002 -3.777303E+001 -1.198170E+002 -3.776750E+001 -1.198836E+002 -4.051617E-001  7.772044E+001
 320.0000     -2.324961E-001 -1.386145E+002 -3.717609E+001 -1.236857E+002 -3.717259E+001 -1.236197E+002 -4.040808E-001  7.311020E+001
 325.0000     -2.426755E-001 -1.417339E+002 -3.659685E+001 -1.274670E+002 -3.660405E+001 -1.274695E+002 -4.006809E-001  6.849994E+001
 330.0000     -2.558622E-001 -1.449470E+002 -3.604050E+001 -1.313466E+002 -3.605194E+001 -1.313761E+002 -3.966095E-001  6.388773E+001
 335.0000     -2.661491E-001 -1.482466E+002 -3.550735E+001 -1.352309E+002 -3.550885E+001 -1.352617E+002 -3.950962E-001  5.927124E+001
 340.0000     -2.783720E-001 -1.516450E+002 -3.500554E+001 -1.392377E+002 -3.500794E+001 -1.391773E+002 -3.921446E-001  5.464029E+001
 345.0000     -2.906076E-001 -1.551735E+002 -3.452805E+001 -1.432236E+002 -3.452586E+001 -1.432390E+002 -3.902927E-001  4.996187E+001
 350.0000     -3.052324E-001 -1.588302E+002 -3.408777E+001 -1.473940E+002 -3.409380E+001 -1.473710E+002 -3.883057E-001  4.524057E+001
 355.0000     -3.188795E-001 -1.626175E+002 -3.369058E+001 -1.515328E+002 -3.368689E+001 -1.515294E+002 -3.872944E-001  4.047233E+001
 360.0000     -3.357276E-001 -1.665817E+002 -3.333661E+001 -1.558333E+002 -3.333945E+001 -1.558172E+002 -3.878952E-001  3.565792E+001
 365.0000     -3.541334E-001 -1.707058E+002 -3.304973E+001 -1.601649E+002 -3.304855E+001 -1.601492E+002 -3.887971E-001  3.074986E+001
 370.0000     -3.713270E-001 -1.750498E+002 -3.283582E+001 -1.646480E+002 -3.283780E+001 -1.646425E+002 -3.921800E-001  2.573584E+001
 375.0000     -3.934207E-001 -1.796175E+002 -3.271646E+001 -1.692420E+002 -3.271789E+001 -1.692509E+002 -3.974878E-001  2.060858E+001
 376.0000     -3.980131E-001  1.794418E+002 -3.270592E+001 -1.701784E+002 -3.271230E+001 -1.701539E+002 -3.984641E-001  1.956305E+001
 377.0000     -4.016036E-001  1.784758E+002 -3.270254E+001 -1.711141E+002 -3.270408E+001 -1.711149E+002 -3.984982E-001  1.850919E+001
 378.0000     -4.064362E-001  1.775123E+002 -3.270293E+001 -1.720781E+002 -3.270258E+001 -1.720545E+002 -3.992209E-001  1.746856E+001
 379.0000     -4.123886E-001  1.765324E+002 -3.271358E+001 -1.729817E+002 -3.271590E+001 -1.729771E+002 -4.019137E-001  1.641896E+001
 380.0000     -4.177003E-001  1.755503E+002 -3.272647E+001 -1.739428E+002 -3.272151E+001 -1.739316E+002 -4.025899E-001  1.533587E+001
 381.0000     -4.215325E-001  1.745488E+002 -3.274460E+001 -1.748991E+002 -3.274600E+001 -1.748835E+002 -4.042242E-001  1.427009E+001
 382.0000     -4.269404E-001  1.735306E+002 -3.277930E+001 -1.758137E+002 -3.277716E+001 -1.758273E+002 -4.053779E-001  1.317637E+001
 383.0000     -4.313940E-001  1.724896E+002 -3.280688E+001 -1.768230E+002 -3.281287E+001 -1.767720E+002 -4.052861E-001  1.209924E+001
 384.0000     -4.361002E-001  1.714619E+002 -3.285119E+001 -1.777754E+002 -3.285340E+001 -1.777523E+002 -4.104869E-001  1.099913E+001
 385.0000     -4.412518E-001  1.703946E+002 -3.290666E+001 -1.787425E+002 -3.290902E+001 -1.787454E+002 -4.103755E-001  9.905491E+000
 386.0000     -4.461351E-001  1.693324E+002 -3.296608E+001 -1.797034E+002 -3.296590E+001 -1.796802E+002 -4.127186E-001  8.797841E+000
 387.0000     -4.537200E-001  1.682472E+002 -3.303511E+001  1.793396E+002 -3.303559E+001  1.793535E+002 -4.156688E-001  7.660260E+000
 388.0000     -4.577493E-001  1.671511E+002 -3.311388E+001  1.783818E+002 -3.311794E+001  1.783939E+002 -4.169564E-001  6.540945E+000
 389.0000     -4.627443E-001  1.660281E+002 -3.321474E+001  1.774325E+002 -3.321129E+001  1.774336E+002 -4.197575E-001  5.408401E+000
 390.0000     -4.704146E-001  1.649091E+002 -3.332595E+001  1.764569E+002 -3.332375E+001  1.764444E+002 -4.216442E-001  4.263749E+000
 391.0000     -4.762943E-001  1.637453E+002 -3.344170E+001  1.754709E+002 -3.344397E+001  1.754638E+002 -4.247607E-001  3.090968E+000
 392.0000     -4.832408E-001  1.625818E+002 -3.357746E+001  1.745030E+002 -3.358042E+001  1.745262E+002 -4.280500E-001  1.931310E+000
 393.0000     -4.911185E-001  1.613998E+002 -3.372784E+001  1.735501E+002 -3.373541E+001  1.736035E+002 -4.296042E-001  7.526377E-001
 394.0000     -4.969228E-001  1.601976E+002 -3.390102E+001  1.725915E+002 -3.390569E+001  1.726433E+002 -4.335085E-001 -4.284931E-001
 395.0000     -5.040836E-001  1.589617E+002 -3.409691E+001  1.716718E+002 -3.409663E+001  1.716838E+002 -4.347810E-001 -1.639216E+000
 396.0000     -5.109373E-001  1.577328E+002 -3.431317E+001  1.707524E+002 -3.431820E+001  1.708082E+002 -4.410346E-001 -2.851210E+000
 397.0000     -5.180203E-001  1.564655E+002 -3.454804E+001  1.698344E+002 -3.455259E+001  1.698958E+002 -4.438825E-001 -4.068380E+000
 398.0000     -5.266699E-001  1.551874E+002 -3.481982E+001  1.689910E+002 -3.481052E+001  1.690042E+002 -4.474528E-001 -5.309154E+000
 399.0000     -5.336033E-001  1.538761E+002 -3.511561E+001  1.681613E+002 -3.510982E+001  1.681474E+002 -4.515624E-001 -6.557645E+000
 400.0000     -5.408179E-001  1.525427E+002 -3.543852E+001  1.673834E+002 -3.544395E+001  1.673866E+002 -4.556664E-001 -7.831199E+000
 401.0000     -5.515310E-001  1.511860E+002 -3.581564E+001  1.666004E+002 -3.581438E+001  1.666467E+002 -4.603015E-001 -9.114715E+000
 402.0000     -5.608051E-001  1.497941E+002 -3.624355E+001  1.659181E+002 -3.623462E+001  1.659917E+002 -4.645946E-001 -1.041345E+001
 403.0000     -5.694531E-001  1.483975E+002 -3.670898E+001  1.653968E+002 -3.669974E+001  1.653835E+002 -4.703285E-001 -1.172323E+001
 404.0000     -5.789740E-001  1.469469E+002 -3.724368E+001  1.649870E+002 -3.724217E+001  1.648693E+002 -4.765824E-001 -1.304933E+001
 405.0000     -5.891393E-001  1.454893E+002 -3.784543E+001  1.647161E+002 -3.785151E+001  1.647519E+002 -4.815193E-001 -1.439931E+001
 406.0000     -5.989130E-001  1.439836E+002 -3.853778E+001  1.646434E+002 -3.852863E+001  1.646927E+002 -4.883601E-001 -1.576514E+001
 407.0000     -6.096417E-001  1.424613E+002 -3.934061E+001  1.649238E+002 -3.934035E+001  1.650018E+002 -4.921691E-001 -1.714905E+001
 408.0000     -6.207533E-001  1.409032E+002 -4.025410E+001  1.657032E+002 -4.027712E+001  1.658343E+002 -5.004865E-001 -1.855076E+001
 409.0000     -6.322972E-001  1.393084E+002 -4.135538E+001  1.673639E+002 -4.135588E+001  1.672570E+002 -5.059862E-001 -1.997114E+001
 410.0000     -6.441194E-001  1.376630E+002 -4.265216E+001  1.699657E+002 -4.263679E+001  1.698999E+002 -5.145897E-001 -2.141097E+001
 411.0000     -6.570475E-001  1.359919E+002 -4.418912E+001  1.745229E+002 -4.417506E+001  1.745729E+002 -5.218893E-001 -2.287780E+001
 412.0000     -6.700128E-001  1.342836E+002 -4.599478E+001 -1.776096E+002 -4.597821E+001 -1.774890E+002 -5.314138E-001 -2.437199E+001
 413.0000     -6.838207E-001  1.325251E+002 -4.785539E+001 -1.636287E+002 -4.789730E+001 -1.637047E+002 -5.397447E-001 -2.588872E+001
 414.0000     -6.992432E-001  1.307285E+002 -4.912441E+001 -1.416053E+002 -4.913662E+001 -1.416364E+002 -5.488687E-001 -2.742918E+001
 415.0000     -7.142116E-001  1.288854E+002 -4.867376E+001 -1.153354E+002 -4.867473E+001 -1.155868E+002 -5.587937E-001 -2.899277E+001
 416.0000     -7.313810E-001  1.269821E+002 -4.664536E+001 -9.555424E+001 -4.662600E+001 -9.553226E+001 -5.707027E-001 -3.059546E+001
 417.0000     -7.479020E-001  1.250449E+002 -4.429924E+001 -8.383768E+001 -4.427827E+001 -8.373357E+001 -5.781345E-001 -3.221686E+001
 418.0000     -7.639464E-001  1.230416E+002 -4.213741E+001 -7.713508E+001 -4.212492E+001 -7.715140E+001 -5.910963E-001 -3.388116E+001
 419.0000     -7.836991E-001  1.209850E+002 -4.022385E+001 -7.340170E+001 -4.023889E+001 -7.340312E+001 -6.028537E-001 -3.556853E+001
 420.0000     -8.042176E-001  1.188573E+002 -3.855653E+001 -7.139281E+001 -3.856085E+001 -7.134547E+001 -6.155973E-001 -3.729168E+001
 421.0000     -8.258709E-001  1.166704E+002 -3.709542E+001 -7.053773E+001 -3.708382E+001 -7.050394E+001 -6.305004E-001 -3.905995E+001
 422.0000     -8.480501E-001  1.144156E+002 -3.577340E+001 -7.029057E+001 -3.577896E+001 -7.036597E+001 -6.467699E-001 -4.086366E+001
 423.0000     -8.722285E-001  1.120926E+002 -3.459875E+001 -7.060376E+001 -3.460224E+001 -7.065755E+001 -6.617284E-001 -4.270258E+001
 424.0000     -8.999121E-001  1.096876E+002 -3.353179E+001 -7.132014E+001 -3.353364E+001 -7.133749E+001 -6.791682E-001 -4.459200E+001
 425.0000     -9.252422E-001  1.071899E+002 -3.255651E+001 -7.226397E+001 -3.256075E+001 -7.224591E+001 -6.950142E-001 -4.653267E+001
 426.0000     -9.550529E-001  1.046224E+002 -3.166706E+001 -7.340672E+001 -3.166916E+001 -7.343181E+001 -7.150815E-001 -4.850793E+001
 427.0000     -9.874423E-001  1.019381E+002 -3.085365E+001 -7.478703E+001 -3.085392E+001 -7.479557E+001 -7.346379E-001 -5.054265E+001
 428.0000     -1.020829E+000  9.916026E+001 -3.010438E+001 -7.629756E+001 -3.011139E+001 -7.625014E+001 -7.584143E-001 -5.263445E+001
 429.0000     -1.056092E+000  9.627336E+001 -2.942602E+001 -7.789365E+001 -2.942810E+001 -7.790215E+001 -7.816423E-001 -5.478706E+001
 430.0000     -1.095997E+000  9.327564E+001 -2.881539E+001 -7.960112E+001 -2.881318E+001 -7.962893E+001 -8.054717E-001 -5.700919E+001
 431.0000     -1.137848E+000  9.014127E+001 -2.826173E+001 -8.139867E+001 -2.826453E+001 -8.138514E+001 -8.334956E-001 -5.928196E+001
 432.0000     -1.183173E+000  8.687551E+001 -2.778121E+001 -8.321878E+001 -2.778034E+001 -8.322393E+001 -8.630295E-001 -6.163888E+001
 433.0000     -1.231543E+000  8.345522E+001 -2.736865E+001 -8.509312E+001 -2.736815E+001 -8.508383E+001 -8.922281E-001 -6.406644E+001
 434.0000     -1.284691E+000  7.988289E+001 -2.703271E+001 -8.695293E+001 -2.703712E+001 -8.695097E+001 -9.266481E-001 -6.659572E+001
 435.0000     -1.344495E+000  7.610373E+001 -2.678807E+001 -8.876699E+001 -2.678889E+001 -8.876070E+001 -9.630748E-001 -6.921391E+001
 436.0000     -1.406031E+000  7.217712E+001 -2.663775E+001 -9.043281E+001 -2.663978E+001 -9.042600E+001 -1.002092E+000 -7.191540E+001
 437.0000     -1.476278E+000  6.801517E+001 -2.660641E+001 -9.186842E+001 -2.660707E+001 -9.185105E+001 -1.044477E+000 -7.474922E+001
 438.0000     -1.552740E+000  6.362405E+001 -2.670747E+001 -9.289355E+001 -2.671097E+001 -9.287582E+001 -1.092423E+000 -7.768808E+001
 439.0000     -1.635992E+000  5.898575E+001 -2.698026E+001 -9.321352E+001 -2.698193E+001 -9.318934E+001 -1.143660E+000 -8.076608E+001
 440.0000     -1.731545E+000  5.405342E+001 -2.745498E+001 -9.233462E+001 -2.745163E+001 -9.235056E+001 -1.199154E+000 -8.400768E+001
 441.0000     -1.835660E+000  4.882260E+001 -2.814790E+001 -8.935888E+001 -2.814267E+001 -8.936333E+001 -1.262442E+000 -8.740745E+001
 442.0000     -1.950495E+000  4.322889E+001 -2.900708E+001 -8.267985E+001 -2.900701E+001 -8.266360E+001 -1.333370E+000 -9.098717E+001
 443.0000     -2.085314E+000  3.726357E+001 -2.973889E+001 -6.998611E+001 -2.974526E+001 -7.000909E+001 -1.414705E+000 -9.478321E+001
 444.0000     -2.235520E+000  3.087954E+001 -2.951055E+001 -5.101398E+001 -2.951115E+001 -5.103271E+001 -1.508441E+000 -9.880231E+001
 445.0000     -2.412145E+000  2.399292E+001 -2.766566E+001 -3.229858E+001 -2.766458E+001 -3.229597E+001 -1.619885E+000 -1.031053E+002
 446.0000     -2.616035E+000  1.657572E+001 -2.483635E+001 -2.057588E+001 -2.483672E+001 -2.055952E+001 -1.752791E+000 -1.077030E+002
 447.0000     -2.858140E+000  8.587945E+000 -2.187526E+001 -1.565583E+001 -2.187575E+001 -1.566019E+001 -1.915274E+000 -1.126200E+002
 448.0000     -3.145343E+000 -4.710056E-002 -1.911069E+001 -1.531441E+001 -1.911216E+001 -1.530888E+001 -2.116048E+000 -1.178974E+002
 449.0000     -3.493321E+000 -9.354671E+000 -1.661047E+001 -1.787559E+001 -1.661081E+001 -1.785383E+001 -2.367424E+000 -1.235412E+002
 450.0000     -3.912781E+000 -1.935581E+001 -1.436414E+001 -2.242171E+001 -1.436481E+001 -2.239564E+001 -2.682334E+000 -1.295787E+002
 451.0000     -4.418685E+000 -3.008426E+001 -1.235656E+001 -2.839386E+001 -1.235709E+001 -2.838722E+001 -3.076329E+000 -1.359850E+002
 452.0000     -5.028241E+000 -4.147787E+001 -1.057554E+001 -3.545218E+001 -1.057757E+001 -3.544788E+001 -3.568845E+000 -1.427016E+002
 453.0000     -5.750223E+000 -5.345828E+001 -9.015393E+000 -4.329332E+001 -9.016861E+000 -4.329696E+001 -4.174000E+000 -1.496262E+002
 454.0000     -6.594189E+000 -6.589782E+001 -7.669396E+000 -5.167596E+001 -7.670966E+000 -5.166424E+001 -4.904064E+000 -1.566829E+002
 455.0000     -7.557021E+000 -7.863757E+001 -6.527815E+000 -6.033809E+001 -6.526302E+000 -6.032601E+001 -5.760051E+000 -1.637027E+002
 456.0000     -8.623604E+000 -9.147400E+001 -5.573020E+000 -6.905549E+001 -5.573511E+000 -6.904266E+001 -6.738964E+000 -1.705623E+002
 457.0000     -9.776999E+000 -1.042285E+002 -4.788805E+000 -7.764813E+001 -4.790614E+000 -7.764837E+001 -7.837291E+000 -1.771605E+002
 458.0000     -1.098572E+001 -1.167115E+002 -4.151185E+000 -8.597685E+001 -4.154913E+000 -8.598166E+001 -9.033692E+000  1.765528E+002
 459.0000     -1.222603E+001 -1.287472E+002 -3.639011E+000 -9.396480E+001 -3.640348E+000 -9.396272E+001 -1.032052E+001  1.705416E+002
 460.0000     -1.347318E+001 -1.401748E+002 -3.224547E+000 -1.015342E+002 -3.227112E+000 -1.015415E+002 -1.168212E+001  1.647936E+002
 461.0000     -1.470940E+001 -1.507961E+002 -2.893497E+000 -1.087136E+002 -2.894673E+000 -1.087161E+002 -1.311574E+001  1.591356E+002
 462.0000     -1.591566E+001 -1.604945E+002 -2.623478E+000 -1.154664E+002 -2.624509E+000 -1.154606E+002 -1.461823E+001  1.534545E+002
 463.0000     -1.708759E+001 -1.690929E+002 -2.403416E+000 -1.218438E+002 -2.402322E+000 -1.218342E+002 -1.618776E+001  1.475208E+002
 464.0000     -1.822609E+001 -1.764548E+002 -2.221988E+000 -1.278568E+002 -2.220320E+000 -1.278324E+002 -1.783111E+001  1.410440E+002
 465.0000     -1.931924E+001  1.775288E+002 -2.069865E+000 -1.335351E+002 -2.071547E+000 -1.335286E+002 -1.955170E+001  1.335930E+002
 466.0000     -2.035663E+001  1.730442E+002 -1.944554E+000 -1.389318E+002 -1.945553E+000 -1.389189E+002 -2.134628E+001  1.246814E+002
 467.0000     -2.132012E+001  1.699601E+002 -1.836444E+000 -1.440632E+002 -1.836677E+000 -1.440448E+002 -2.314657E+001  1.135973E+002
 468.0000     -2.219039E+001  1.685380E+002 -1.745328E+000 -1.489384E+002 -1.748079E+000 -1.489368E+002 -2.483715E+001  9.944966E+001
 469.0000     -2.292170E+001  1.684609E+002 -1.667045E+000 -1.536034E+002 -1.665859E+000 -1.535990E+002 -2.613358E+001  8.205148E+001
 470.0000     -2.345796E+001  1.696266E+002 -1.597786E+000 -1.580661E+002 -1.600337E+000 -1.580616E+002 -2.676431E+001  6.273077E+001
 471.0000     -2.381090E+001  1.716260E+002 -1.539313E+000 -1.623596E+002 -1.538562E+000 -1.623431E+002 -2.661868E+001  4.415388E+001
 472.0000     -2.393498E+001  1.738069E+002 -1.486325E+000 -1.664725E+002 -1.487177E+000 -1.664747E+002 -2.593928E+001  2.857309E+001
 473.0000     -2.388926E+001  1.760786E+002 -1.439669E+000 -1.704395E+002 -1.442769E+000 -1.704430E+002 -2.506276E+001  1.635959E+001
 474.0000     -2.370067E+001  1.779407E+002 -1.399128E+000 -1.742773E+002 -1.399874E+000 -1.742711E+002 -2.415508E+001  6.774775E+000
 475.0000     -2.341345E+001  1.791574E+002 -1.363751E+000 -1.779819E+002 -1.362263E+000 -1.779799E+002 -2.333260E+001 -8.913044E-001
 476.0000     -2.308237E+001  1.798674E+002 -1.327889E+000  1.784276E+002 -1.327138E+000  1.784434E+002 -2.259566E+001 -7.217171E+000
 477.0000     -2.272206E+001 -1.799388E+002 -1.298984E+000  1.749456E+002 -1.298415E+000  1.749710E+002 -2.197982E+001 -1.261847E+001
 478.0000     -2.238780E+001  1.797848E+002 -1.270859E+000  1.715712E+002 -1.271516E+000  1.715811E+002 -2.144075E+001 -1.731904E+001
 479.0000     -2.205533E+001  1.791943E+002 -1.244378E+000  1.682934E+002 -1.245509E+000  1.682953E+002 -2.098921E+001 -2.152019E+001
 480.0000     -2.176148E+001  1.782253E+002 -1.222364E+000  1.651064E+002 -1.223224E+000  1.651032E+002 -2.061263E+001 -2.539165E+001
 481.0000     -2.149075E+001  1.770906E+002 -1.201371E+000  1.619821E+002 -1.201239E+000  1.619823E+002 -2.030077E+001 -2.894686E+001
 482.0000     -2.126356E+001  1.757371E+002 -1.180107E+000  1.589443E+002 -1.179959E+000  1.589484E+002 -2.004746E+001 -3.227820E+001
 483.0000     -2.106897E+001  1.744103E+002 -1.162443E+000  1.559721E+002 -1.160960E+000  1.559845E+002 -1.983745E+001 -3.542459E+001
 484.0000     -2.090385E+001  1.728957E+002 -1.143638E+000  1.530670E+002 -1.144477E+000  1.530844E+002 -1.969096E+001 -3.849086E+001
 485.0000     -2.078390E+001  1.714190E+002 -1.126172E+000  1.502318E+002 -1.126898E+000  1.502414E+002 -1.958219E+001 -4.137675E+001
 486.0000     -2.068845E+001  1.698516E+002 -1.110460E+000  1.474614E+002 -1.111212E+000  1.474531E+002 -1.951175E+001 -4.422506E+001
 487.0000     -2.062308E+001  1.683519E+002 -1.095132E+000  1.447340E+002 -1.095222E+000  1.447350E+002 -1.948237E+001 -4.695347E+001
 488.0000     -2.059144E+001  1.668164E+002 -1.080409E+000  1.420566E+002 -1.081575E+000  1.420654E+002 -1.949519E+001 -4.960390E+001
 489.0000     -2.058759E+001  1.653888E+002 -1.066061E+000  1.394409E+002 -1.066428E+000  1.394455E+002 -1.953593E+001 -5.230806E+001
 490.0000     -2.060721E+001  1.639505E+002 -1.052862E+000  1.368619E+002 -1.051928E+000  1.368686E+002 -1.961126E+001 -5.483587E+001
 491.0000     -2.065596E+001  1.625958E+002 -1.039376E+000  1.343284E+002 -1.040879E+000  1.343272E+002 -1.971427E+001 -5.738715E+001
 492.0000     -2.073248E+001  1.613225E+002 -1.025585E+000  1.318465E+002 -1.027575E+000  1.318515E+002 -1.985707E+001 -5.989701E+001
 493.0000     -2.082743E+001  1.601303E+002 -1.015288E+000  1.293817E+002 -1.013895E+000  1.294063E+002 -2.002118E+001 -6.248190E+001
 494.0000     -2.093432E+001  1.589965E+002 -1.002006E+000  1.269837E+002 -1.002153E+000  1.269817E+002 -2.021655E+001 -6.495095E+001
 495.0000     -2.109016E+001  1.580084E+002 -9.903410E-001  1.246050E+002 -9.907871E-001  1.246033E+002 -2.045362E+001 -6.743472E+001
 496.0000     -2.124357E+001  1.571160E+002 -9.794274E-001  1.222585E+002 -9.801464E-001  1.222595E+002 -2.071045E+001 -6.997735E+001
 497.0000     -2.140730E+001  1.563407E+002 -9.683366E-001  1.199462E+002 -9.699190E-001  1.199494E+002 -2.100850E+001 -7.251080E+001
 498.0000     -2.160570E+001  1.557250E+002 -9.572279E-001  1.176710E+002 -9.584154E-001  1.176760E+002 -2.133447E+001 -7.499973E+001
 499.0000     -2.182274E+001  1.552229E+002 -9.475474E-001  1.154183E+002 -9.470741E-001  1.154209E+002 -2.170436E+001 -7.757325E+001
 500.0000     -2.205160E+001  1.549199E+002 -9.369485E-001  1.131945E+002 -9.375303E-001  1.132053E+002 -2.209363E+001 -8.016942E+001
 501.0000     -2.228407E+001  1.547726E+002 -9.265950E-001  1.110046E+002 -9.295379E-001  1.110081E+002 -2.252897E+001 -8.284309E+001
 502.0000     -2.252864E+001  1.548193E+002 -9.187513E-001  1.088280E+002 -9.187751E-001  1.088504E+002 -2.300585E+001 -8.564641E+001
 503.0000     -2.277862E+001  1.550725E+002 -9.102821E-001  1.066845E+002 -9.087358E-001  1.066948E+002 -2.352982E+001 -8.842733E+001
 504.0000     -2.304205E+001  1.554062E+002 -9.012283E-001  1.045710E+002 -9.016596E-001  1.045695E+002 -2.411547E+001 -9.141213E+001
 505.0000     -2.329204E+001  1.560558E+002 -8.928241E-001  1.024695E+002 -8.938579E-001  1.024894E+002 -2.473374E+001 -9.456840E+001
 506.0000     -2.354277E+001  1.569648E+002 -8.849005E-001  1.003973E+002 -8.853438E-001  1.004086E+002 -2.543191E+001 -9.791187E+001
 507.0000     -2.379682E+001  1.581014E+002 -8.789419E-001  9.835499E+001 -8.789412E-001  9.835265E+001 -2.617461E+001 -1.015126E+002
 508.0000     -2.401677E+001  1.594534E+002 -8.721091E-001  9.632461E+001 -8.711970E-001  9.633042E+001 -2.698860E+001 -1.053917E+002
 509.0000     -2.423242E+001  1.609186E+002 -8.634520E-001  9.430068E+001 -8.648493E-001  9.432288E+001 -2.791483E+001 -1.099669E+002
 510.0000     -2.441798E+001  1.628371E+002 -8.578097E-001  9.232908E+001 -8.578762E-001  9.233466E+001 -2.890739E+001 -1.152180E+002
 511.0000     -2.456800E+001  1.647143E+002 -8.525065E-001  9.034772E+001 -8.518860E-001  9.036633E+001 -3.003292E+001 -1.211579E+002
 512.0000     -2.468747E+001  1.668933E+002 -8.459433E-001  8.840306E+001 -8.464420E-001  8.840739E+001 -3.121906E+001 -1.283985E+002
 513.0000     -2.477325E+001  1.691267E+002 -8.408498E-001  8.646820E+001 -8.413587E-001  8.648032E+001 -3.250338E+001 -1.379327E+002
 514.0000     -2.479816E+001  1.714551E+002 -8.358647E-001  8.456302E+001 -8.373742E-001  8.455645E+001 -3.373387E+001 -1.496089E+002
 515.0000     -2.479089E+001  1.737958E+002 -8.327397E-001  8.266393E+001 -8.316506E-001  8.265685E+001 -3.480430E+001 -1.646164E+002
 516.0000     -2.473185E+001  1.759539E+002 -8.279914E-001  8.076991E+001 -8.275842E-001  8.078440E+001 -3.537668E+001  1.776275E+002
 517.0000     -2.462385E+001  1.783179E+002 -8.224161E-001  7.890414E+001 -8.245348E-001  7.891877E+001 -3.518567E+001  1.597120E+002
 518.0000     -2.448574E+001 -1.796266E+002 -8.186659E-001  7.706569E+001 -8.197920E-001  7.706784E+001 -3.442937E+001  1.428998E+002
 519.0000     -2.431533E+001 -1.777450E+002 -8.155696E-001  7.523905E+001 -8.162122E-001  7.524107E+001 -3.325554E+001  1.295542E+002
 520.0000     -2.410911E+001 -1.760221E+002 -8.123581E-001  7.341916E+001 -8.129842E-001  7.341847E+001 -3.202621E+001  1.190587E+002
 521.0000     -2.388491E+001 -1.743636E+002 -8.103579E-001  7.161560E+001 -8.093648E-001  7.161707E+001 -3.082941E+001  1.108725E+002
 522.0000     -2.365637E+001 -1.730398E+002 -8.065057E-001  6.982042E+001 -8.088453E-001  6.981771E+001 -2.968969E+001  1.044383E+002
 523.0000     -2.338986E+001 -1.718633E+002 -8.042394E-001  6.805780E+001 -8.057281E-001  6.806094E+001 -2.865940E+001  9.891791E+001
 524.0000     -2.313460E+001 -1.709891E+002 -8.033841E-001  6.629575E+001 -8.047295E-001  6.629807E+001 -2.771582E+001  9.437457E+001
 525.0000     -2.285711E+001 -1.702483E+002 -7.997200E-001  6.454189E+001 -8.010131E-001  6.454819E+001 -2.686133E+001  9.042622E+001
 526.0000     -2.258952E+001 -1.696444E+002 -7.997812E-001  6.280334E+001 -7.997869E-001  6.281493E+001 -2.609951E+001  8.697791E+001
 527.0000     -2.232570E+001 -1.693085E+002 -7.984118E-001  6.108834E+001 -7.990125E-001  6.109174E+001 -2.538266E+001  8.390089E+001
 528.0000     -2.205469E+001 -1.690351E+002 -7.971511E-001  5.938698E+001 -7.959517E-001  5.938408E+001 -2.473882E+001  8.092321E+001
 529.0000     -2.179463E+001 -1.689977E+002 -7.964636E-001  5.768171E+001 -7.968813E-001  5.770247E+001 -2.414026E+001  7.827590E+001
 530.0000     -2.154452E+001 -1.690490E+002 -7.935535E-001  5.600995E+001 -7.961405E-001  5.601475E+001 -2.360006E+001  7.589727E+001
 531.0000     -2.129293E+001 -1.692417E+002 -7.939886E-001  5.432988E+001 -7.952311E-001  5.434367E+001 -2.308967E+001  7.357559E+001
 532.0000     -2.106032E+001 -1.695241E+002 -7.937759E-001  5.267910E+001 -7.940322E-001  5.267999E+001 -2.262515E+001  7.138809E+001
 533.0000     -2.083853E+001 -1.699207E+002 -7.934247E-001  5.102586E+001 -7.926995E-001  5.104029E+001 -2.220347E+001  6.924522E+001
 534.0000     -2.061919E+001 -1.704023E+002 -7.942799E-001  4.938216E+001 -7.928542E-001  4.939119E+001 -2.178507E+001  6.727870E+001
 535.0000     -2.040511E+001 -1.710040E+002 -7.926056E-001  4.776340E+001 -7.919064E-001  4.776421E+001 -2.142007E+001  6.535845E+001
 536.0000     -2.020506E+001 -1.717057E+002 -7.927188E-001  4.613834E+001 -7.931479E-001  4.615906E+001 -2.106551E+001  6.352887E+001
 537.0000     -2.001319E+001 -1.723858E+002 -7.934991E-001  4.454501E+001 -7.924070E-001  4.454636E+001 -2.073865E+001  6.172646E+001
 538.0000     -1.982895E+001 -1.732432E+002 -7.914613E-001  4.294939E+001 -7.916372E-001  4.295948E+001 -2.042886E+001  6.000774E+001
 539.0000     -1.965214E+001 -1.741190E+002 -7.913334E-001  4.135978E+001 -7.919633E-001  4.136404E+001 -2.015696E+001  5.833822E+001
 540.0000     -1.950017E+001 -1.749730E+002 -7.931539E-001  3.978580E+001 -7.924134E-001  3.979738E+001 -1.988847E+001  5.673725E+001
 541.0000     -1.935257E+001 -1.759762E+002 -7.924422E-001  3.821755E+001 -7.936797E-001  3.822272E+001 -1.963645E+001  5.510756E+001
 542.0000     -1.920887E+001 -1.770221E+002 -7.939475E-001  3.666123E+001 -7.929612E-001  3.666751E+001 -1.940623E+001  5.356499E+001
 543.0000     -1.907494E+001 -1.780500E+002 -7.909708E-001  3.511557E+001 -7.937565E-001  3.511211E+001 -1.918251E+001  5.203918E+001
 544.0000     -1.895074E+001 -1.791965E+002 -7.919233E-001  3.356041E+001 -7.919997E-001  3.358739E+001 -1.897881E+001  5.059631E+001
 545.0000     -1.883465E+001  1.796827E+002 -7.944256E-001  3.204191E+001 -7.929591E-001  3.204832E+001 -1.879306E+001  4.911625E+001
 546.0000     -1.872333E+001  1.785253E+002 -7.936353E-001  3.052144E+001 -7.928806E-001  3.052807E+001 -1.862190E+001  4.772274E+001
 547.0000     -1.861908E+001  1.773340E+002 -7.929067E-001  2.900270E+001 -7.937497E-001  2.901413E+001 -1.845403E+001  4.630426E+001
 548.0000     -1.853257E+001  1.760209E+002 -7.923453E-001  2.751005E+001 -7.930251E-001  2.750573E+001 -1.829401E+001  4.494790E+001
 549.0000     -1.844984E+001  1.747844E+002 -7.922862E-001  2.600106E+001 -7.949079E-001  2.600821E+001 -1.815795E+001  4.361424E+001
 550.0000     -1.836976E+001  1.735175E+002 -7.930572E-001  2.451145E+001 -7.921818E-001  2.452605E+001 -1.802178E+001  4.228643E+001
 551.0000     -1.829747E+001  1.721576E+002 -7.928666E-001  2.302885E+001 -7.923463E-001  2.303443E+001 -1.790231E+001  4.100870E+001
 552.0000     -1.823812E+001  1.707758E+002 -7.922606E-001  2.154923E+001 -7.929177E-001  2.156348E+001 -1.778551E+001  3.972992E+001
 553.0000     -1.819053E+001  1.694274E+002 -7.936222E-001  2.007806E+001 -7.929811E-001  2.007663E+001 -1.768748E+001  3.847327E+001
 554.0000     -1.814244E+001  1.680400E+002 -7.927849E-001  1.861225E+001 -7.928700E-001  1.861263E+001 -1.759655E+001  3.724691E+001
 555.0000     -1.810139E+001  1.666290E+002 -7.920465E-001  1.715675E+001 -7.952994E-001  1.714894E+001 -1.750954E+001  3.600185E+001
 556.0000     -1.807074E+001  1.651454E+002 -7.916826E-001  1.570034E+001 -7.916222E-001  1.570850E+001 -1.742958E+001  3.487154E+001
 557.0000     -1.804611E+001  1.637074E+002 -7.912970E-001  1.425171E+001 -7.910531E-001  1.425761E+001 -1.735339E+001  3.368155E+001
 558.0000     -1.802148E+001  1.622058E+002 -7.895838E-001  1.281499E+001 -7.918330E-001  1.282185E+001 -1.729466E+001  3.253828E+001
 559.0000     -1.801546E+001  1.607023E+002 -7.896872E-001  1.138805E+001 -7.923684E-001  1.138803E+001 -1.724167E+001  3.142638E+001
 560.0000     -1.800623E+001  1.591709E+002 -7.896241E-001  9.956864E+000 -7.881555E-001  9.958253E+000 -1.719077E+001  3.033658E+001
 561.0000     -1.800795E+001  1.575776E+002 -7.874517E-001  8.533099E+000 -7.889937E-001  8.529967E+000 -1.714933E+001  2.924031E+001
 562.0000     -1.801518E+001  1.560019E+002 -7.875080E-001  7.100162E+000 -7.876275E-001  7.113324E+000 -1.711855E+001  2.818981E+001
 563.0000     -1.802141E+001  1.544329E+002 -7.862269E-001  5.696799E+000 -7.878073E-001  5.704171E+000 -1.708845E+001  2.714409E+001
 564.0000     -1.803975E+001  1.528268E+002 -7.868849E-001  4.282288E+000 -7.856805E-001  4.290595E+000 -1.707180E+001  2.612881E+001
 565.0000     -1.806903E+001  1.511548E+002 -7.847497E-001  2.887116E+000 -7.849323E-001  2.885559E+000 -1.705560E+001  2.514866E+001
 566.0000     -1.809734E+001  1.494787E+002 -7.835484E-001  1.479597E+000 -7.851396E-001  1.485320E+000 -1.704953E+001  2.413585E+001
 567.0000     -1.813702E+001  1.477833E+002 -7.827197E-001  8.291366E-002 -7.818061E-001  9.241146E-002 -1.704546E+001  2.319463E+001
 568.0000     -1.818124E+001  1.460775E+002 -7.810171E-001 -1.304819E+000 -7.811663E-001 -1.296130E+000 -1.705356E+001  2.225138E+001
 569.0000     -1.822677E+001  1.443343E+002 -7.784665E-001 -2.688219E+000 -7.810578E-001 -2.686949E+000 -1.705782E+001  2.131109E+001
 570.0000     -1.828131E+001  1.425687E+002 -7.775093E-001 -4.074898E+000 -7.787094E-001 -4.073777E+000 -1.707986E+001  2.042031E+001
 571.0000     -1.834293E+001  1.407582E+002 -7.766105E-001 -5.455955E+000 -7.786098E-001 -5.448876E+000 -1.709690E+001  1.957328E+001
 572.0000     -1.840634E+001  1.389290E+002 -7.750294E-001 -6.831397E+000 -7.765158E-001 -6.824343E+000 -1.712613E+001  1.871819E+001
 573.0000     -1.847927E+001  1.371035E+002 -7.743806E-001 -8.208023E+000 -7.747038E-001 -8.191211E+000 -1.715643E+001  1.789557E+001
 574.0000     -1.856012E+001  1.352665E+002 -7.714484E-001 -9.569424E+000 -7.722919E-001 -9.573649E+000 -1.719584E+001  1.707640E+001
 575.0000     -1.863651E+001  1.333096E+002 -7.699525E-001 -1.094686E+001 -7.709236E-001 -1.093231E+001 -1.723403E+001  1.629348E+001
 576.0000     -1.873527E+001  1.313943E+002 -7.700236E-001 -1.230271E+001 -7.690812E-001 -1.229206E+001 -1.729125E+001  1.558456E+001
 577.0000     -1.882451E+001  1.293672E+002 -7.684357E-001 -1.366083E+001 -7.681757E-001 -1.365166E+001 -1.734392E+001  1.489741E+001
 578.0000     -1.891665E+001  1.273807E+002 -7.654758E-001 -1.502452E+001 -7.671563E-001 -1.501507E+001 -1.740486E+001  1.417037E+001
 579.0000     -1.902528E+001  1.253369E+002 -7.627760E-001 -1.637119E+001 -7.654046E-001 -1.636512E+001 -1.746410E+001  1.348294E+001
 580.0000     -1.913340E+001  1.232729E+002 -7.617950E-001 -1.772918E+001 -7.635556E-001 -1.771387E+001 -1.754076E+001  1.283793E+001
 581.0000     -1.924476E+001  1.211213E+002 -7.589172E-001 -1.907868E+001 -7.630889E-001 -1.906918E+001 -1.761244E+001  1.227281E+001
 582.0000     -1.936968E+001  1.189227E+002 -7.591815E-001 -2.041886E+001 -7.598052E-001 -2.041917E+001 -1.768752E+001  1.166265E+001
 583.0000     -1.948555E+001  1.166998E+002 -7.564118E-001 -2.176796E+001 -7.563474E-001 -2.176150E+001 -1.777270E+001  1.114547E+001
 584.0000     -1.960820E+001  1.144082E+002 -7.559842E-001 -2.310925E+001 -7.551558E-001 -2.310851E+001 -1.785530E+001  1.062665E+001
 585.0000     -1.974077E+001  1.121214E+002 -7.531955E-001 -2.445077E+001 -7.545049E-001 -2.444289E+001 -1.794766E+001  1.015593E+001
 586.0000     -1.988433E+001  1.097584E+002 -7.515686E-001 -2.578553E+001 -7.521982E-001 -2.578198E+001 -1.804117E+001  9.766023E+000
 587.0000     -2.001514E+001  1.073196E+002 -7.516832E-001 -2.712247E+001 -7.513907E-001 -2.712259E+001 -1.814422E+001  9.340835E+000
 588.0000     -2.016689E+001  1.048581E+002 -7.492121E-001 -2.846053E+001 -7.500577E-001 -2.845559E+001 -1.824728E+001  8.964627E+000
 589.0000     -2.029641E+001  1.023578E+002 -7.465615E-001 -2.978930E+001 -7.473512E-001 -2.979346E+001 -1.835477E+001  8.638779E+000
 590.0000     -2.045361E+001  9.969017E+001 -7.461995E-001 -3.112442E+001 -7.465863E-001 -3.111807E+001 -1.845696E+001  8.438779E+000
 591.0000     -2.060268E+001  9.695316E+001 -7.438217E-001 -3.245181E+001 -7.450027E-001 -3.244426E+001 -1.858098E+001  8.155913E+000
 592.0000     -2.075264E+001  9.427821E+001 -7.436125E-001 -3.378387E+001 -7.437362E-001 -3.376912E+001 -1.869365E+001  7.965536E+000
 593.0000     -2.089867E+001  9.142101E+001 -7.417924E-001 -3.510933E+001 -7.407158E-001 -3.509589E+001 -1.882329E+001  7.884340E+000
 594.0000     -2.105572E+001  8.851446E+001 -7.398367E-001 -3.643667E+001 -7.399078E-001 -3.641836E+001 -1.894176E+001  7.816850E+000
 595.0000     -2.121112E+001  8.550836E+001 -7.386795E-001 -3.775136E+001 -7.391563E-001 -3.774857E+001 -1.906592E+001  7.797280E+000
 596.0000     -2.136106E+001  8.244890E+001 -7.360911E-001 -3.907229E+001 -7.389815E-001 -3.907016E+001 -1.918792E+001  7.801860E+000
 597.0000     -2.150003E+001  7.933139E+001 -7.364964E-001 -4.038778E+001 -7.369136E-001 -4.039859E+001 -1.932285E+001  7.877413E+000
 598.0000     -2.164682E+001  7.608749E+001 -7.358531E-001 -4.172358E+001 -7.363603E-001 -4.170723E+001 -1.944779E+001  8.068288E+000
 599.0000     -2.178592E+001  7.276914E+001 -7.335926E-001 -4.303615E+001 -7.356059E-001 -4.302379E+001 -1.957422E+001  8.234812E+000
 600.0000     -2.191212E+001  6.944112E+001 -7.328168E-001 -4.435358E+001 -7.353029E-001 -4.435995E+001 -1.970111E+001  8.533776E+000
 601.0000     -2.204466E+001  6.590567E+001 -7.337240E-001 -4.566588E+001 -7.327515E-001 -4.566767E+001 -1.982960E+001  8.833287E+000
 602.0000     -2.214952E+001  6.232102E+001 -7.340949E-001 -4.698791E+001 -7.330948E-001 -4.697903E+001 -1.995687E+001  9.264838E+000
 603.0000     -2.226087E+001  5.876468E+001 -7.327040E-001 -4.830936E+001 -7.310703E-001 -4.829671E+001 -2.007422E+001  9.702455E+000
 604.0000     -2.235091E+001  5.503793E+001 -7.295339E-001 -4.960823E+001 -7.305934E-001 -4.960675E+001 -2.019921E+001  1.023054E+001
 605.0000     -2.243636E+001  5.127663E+001 -7.305796E-001 -5.092435E+001 -7.307312E-001 -5.090512E+001 -2.030640E+001  1.087097E+001
 606.0000     -2.250686E+001  4.746927E+001 -7.292876E-001 -5.222770E+001 -7.313321E-001 -5.222451E+001 -2.042113E+001  1.142597E+001
 607.0000     -2.256232E+001  4.349776E+001 -7.313350E-001 -5.355387E+001 -7.312491E-001 -5.353568E+001 -2.053325E+001  1.217912E+001
 608.0000     -2.259715E+001  3.966326E+001 -7.308158E-001 -5.485105E+001 -7.302607E-001 -5.485046E+001 -2.063049E+001  1.290487E+001
 609.0000     -2.262420E+001  3.571600E+001 -7.307228E-001 -5.616809E+001 -7.311350E-001 -5.615336E+001 -2.071904E+001  1.375353E+001
 610.0000     -2.262145E+001  3.178353E+001 -7.302405E-001 -5.747641E+001 -7.316062E-001 -5.745775E+001 -2.080739E+001  1.462719E+001
 611.0000     -2.259418E+001  2.777362E+001 -7.298247E-001 -5.877443E+001 -7.319187E-001 -5.876645E+001 -2.087326E+001  1.560040E+001
 612.0000     -2.256623E+001  2.379921E+001 -7.299228E-001 -6.008878E+001 -7.319060E-001 -6.006884E+001 -2.094416E+001  1.655136E+001
 613.0000     -2.252982E+001  1.991779E+001 -7.311851E-001 -6.139522E+001 -7.326105E-001 -6.137629E+001 -2.099224E+001  1.755090E+001
 614.0000     -2.247373E+001  1.590761E+001 -7.326986E-001 -6.270949E+001 -7.328911E-001 -6.269366E+001 -2.103665E+001  1.860398E+001
 615.0000     -2.238977E+001  1.219243E+001 -7.336877E-001 -6.399730E+001 -7.346609E-001 -6.398974E+001 -2.106496E+001  1.964779E+001
 616.0000     -2.228870E+001  8.357210E+000 -7.354773E-001 -6.530550E+001 -7.346871E-001 -6.530125E+001 -2.107876E+001  2.068188E+001
 617.0000     -2.217872E+001  4.585512E+000 -7.351569E-001 -6.661238E+001 -7.357244E-001 -6.660777E+001 -2.109028E+001  2.177148E+001
 618.0000     -2.205790E+001  9.091960E-001 -7.370250E-001 -6.791183E+001 -7.383269E-001 -6.790691E+001 -2.109369E+001  2.293734E+001
 619.0000     -2.192890E+001 -2.709428E+000 -7.388366E-001 -6.922442E+001 -7.378417E-001 -6.920750E+001 -2.106530E+001  2.401892E+001
 620.0000     -2.178814E+001 -6.258632E+000 -7.388542E-001 -7.052422E+001 -7.403775E-001 -7.051957E+001 -2.104083E+001  2.504850E+001
 621.0000     -2.164010E+001 -9.703888E+000 -7.404576E-001 -7.182142E+001 -7.425064E-001 -7.181807E+001 -2.100112E+001  2.614598E+001
 622.0000     -2.148630E+001 -1.309301E+001 -7.440078E-001 -7.314053E+001 -7.438927E-001 -7.311734E+001 -2.094735E+001  2.717748E+001
 623.0000     -2.132139E+001 -1.639789E+001 -7.456912E-001 -7.443502E+001 -7.464647E-001 -7.442456E+001 -2.088054E+001  2.817322E+001
 624.0000     -2.115738E+001 -1.960863E+001 -7.480381E-001 -7.573717E+001 -7.473157E-001 -7.572604E+001 -2.080545E+001  2.913452E+001
 625.0000     -2.099056E+001 -2.273326E+001 -7.502401E-001 -7.703061E+001 -7.499347E-001 -7.703040E+001 -2.072167E+001  3.002443E+001
 626.0000     -2.081339E+001 -2.577824E+001 -7.524788E-001 -7.834423E+001 -7.521303E-001 -7.832248E+001 -2.063687E+001  3.086380E+001
 627.0000     -2.063666E+001 -2.877539E+001 -7.547204E-001 -7.964471E+001 -7.542664E-001 -7.962589E+001 -2.053284E+001  3.172176E+001
 628.0000     -2.046387E+001 -3.162799E+001 -7.577789E-001 -8.094543E+001 -7.569672E-001 -8.093488E+001 -2.042852E+001  3.242551E+001
 629.0000     -2.029436E+001 -3.448480E+001 -7.590486E-001 -8.224209E+001 -7.583090E-001 -8.223863E+001 -2.031507E+001  3.310602E+001
 630.0000     -2.011345E+001 -3.723134E+001 -7.613770E-001 -8.354092E+001 -7.631465E-001 -8.354498E+001 -2.020194E+001  3.383323E+001
 631.0000     -1.993615E+001 -3.987918E+001 -7.648027E-001 -8.484383E+001 -7.654781E-001 -8.484137E+001 -2.007607E+001  3.435907E+001
 632.0000     -1.976797E+001 -4.249242E+001 -7.670540E-001 -8.615717E+001 -7.677565E-001 -8.614453E+001 -1.995027E+001  3.486782E+001
 633.0000     -1.959332E+001 -4.505246E+001 -7.700302E-001 -8.745897E+001 -7.704684E-001 -8.744823E+001 -1.982771E+001  3.527050E+001
 634.0000     -1.943320E+001 -4.754252E+001 -7.726129E-001 -8.875555E+001 -7.751479E-001 -8.875032E+001 -1.969626E+001  3.572164E+001
 635.0000     -1.928126E+001 -4.998361E+001 -7.759004E-001 -9.006347E+001 -7.765432E-001 -9.005350E+001 -1.956565E+001  3.603902E+001
 636.0000     -1.911650E+001 -5.235597E+001 -7.802845E-001 -9.137133E+001 -7.789930E-001 -9.135315E+001 -1.943170E+001  3.627856E+001
 637.0000     -1.895726E+001 -5.467278E+001 -7.833465E-001 -9.266681E+001 -7.849889E-001 -9.266454E+001 -1.930353E+001  3.649041E+001
 638.0000     -1.880963E+001 -5.691851E+001 -7.862875E-001 -9.396727E+001 -7.862637E-001 -9.396387E+001 -1.917407E+001  3.657778E+001
 639.0000     -1.866270E+001 -5.915833E+001 -7.901168E-001 -9.528676E+001 -7.910920E-001 -9.527501E+001 -1.904250E+001  3.674025E+001
 640.0000     -1.851951E+001 -6.136774E+001 -7.928455E-001 -9.658921E+001 -7.931406E-001 -9.657679E+001 -1.891687E+001  3.676563E+001
 641.0000     -1.838064E+001 -6.352017E+001 -7.957456E-001 -9.789499E+001 -7.978600E-001 -9.788573E+001 -1.879485E+001  3.671554E+001
 642.0000     -1.825219E+001 -6.555384E+001 -7.989730E-001 -9.919002E+001 -8.010100E-001 -9.918918E+001 -1.867118E+001  3.662455E+001
 643.0000     -1.811578E+001 -6.770428E+001 -8.035116E-001 -1.005153E+002 -8.051226E-001 -1.005021E+002 -1.855042E+001  3.658798E+001
 644.0000     -1.799909E+001 -6.969672E+001 -8.070725E-001 -1.018218E+002 -8.094386E-001 -1.018021E+002 -1.843475E+001  3.640207E+001
 645.0000     -1.788140E+001 -7.165942E+001 -8.126174E-001 -1.031294E+002 -8.115844E-001 -1.031272E+002 -1.831611E+001  3.619865E+001
 646.0000     -1.776414E+001 -7.364211E+001 -8.148913E-001 -1.044451E+002 -8.146229E-001 -1.044315E+002 -1.820475E+001  3.591617E+001
 647.0000     -1.765189E+001 -7.557059E+001 -8.182610E-001 -1.057541E+002 -8.198586E-001 -1.057565E+002 -1.810082E+001  3.566549E+001
 648.0000     -1.754700E+001 -7.738822E+001 -8.238809E-001 -1.070669E+002 -8.221854E-001 -1.070524E+002 -1.800120E+001  3.531339E+001
 649.0000     -1.745099E+001 -7.927083E+001 -8.243103E-001 -1.083803E+002 -8.265488E-001 -1.083840E+002 -1.789656E+001  3.490609E+001
 650.0000     -1.735924E+001 -8.114069E+001 -8.286602E-001 -1.097005E+002 -8.302232E-001 -1.096932E+002 -1.780617E+001  3.448640E+001
 651.0000     -1.727576E+001 -8.293974E+001 -8.341585E-001 -1.110219E+002 -8.333719E-001 -1.110085E+002 -1.771297E+001  3.405023E+001
 652.0000     -1.719140E+001 -8.474783E+001 -8.364317E-001 -1.123352E+002 -8.382971E-001 -1.123376E+002 -1.763039E+001  3.359308E+001
 653.0000     -1.711491E+001 -8.646111E+001 -8.427166E-001 -1.136742E+002 -8.421316E-001 -1.136645E+002 -1.755244E+001  3.305045E+001
 654.0000     -1.704419E+001 -8.817960E+001 -8.451388E-001 -1.149903E+002 -8.445116E-001 -1.149893E+002 -1.747587E+001  3.252267E+001
 655.0000     -1.698318E+001 -8.988931E+001 -8.475371E-001 -1.163246E+002 -8.488648E-001 -1.163130E+002 -1.740759E+001  3.188362E+001
 656.0000     -1.691606E+001 -9.156564E+001 -8.507336E-001 -1.176418E+002 -8.507786E-001 -1.176381E+002 -1.733975E+001  3.126048E+001
 657.0000     -1.686929E+001 -9.319357E+001 -8.550449E-001 -1.189741E+002 -8.546163E-001 -1.189635E+002 -1.728183E+001  3.063808E+001
 658.0000     -1.681906E+001 -9.482981E+001 -8.597274E-001 -1.203184E+002 -8.593346E-001 -1.203028E+002 -1.723070E+001  2.994569E+001
 659.0000     -1.677473E+001 -9.645395E+001 -8.622949E-001 -1.216575E+002 -8.620045E-001 -1.216443E+002 -1.718077E+001  2.926233E+001
 660.0000     -1.674064E+001 -9.802112E+001 -8.650411E-001 -1.230043E+002 -8.666869E-001 -1.229899E+002 -1.713912E+001  2.851770E+001
 661.0000     -1.670062E+001 -9.958396E+001 -8.692287E-001 -1.243328E+002 -8.699505E-001 -1.243231E+002 -1.710549E+001  2.773617E+001
 662.0000     -1.668229E+001 -1.010896E+002 -8.732439E-001 -1.256811E+002 -8.724807E-001 -1.256812E+002 -1.707305E+001  2.690819E+001
 663.0000     -1.665622E+001 -1.026207E+002 -8.746853E-001 -1.270393E+002 -8.757496E-001 -1.270292E+002 -1.705346E+001  2.608149E+001
 664.0000     -1.664175E+001 -1.040976E+002 -8.793643E-001 -1.283988E+002 -8.796604E-001 -1.283864E+002 -1.703976E+001  2.525686E+001
 665.0000     -1.664065E+001 -1.055599E+002 -8.821275E-001 -1.297562E+002 -8.841451E-001 -1.297322E+002 -1.702158E+001  2.435548E+001
 666.0000     -1.663486E+001 -1.070166E+002 -8.853837E-001 -1.311053E+002 -8.859233E-001 -1.310996E+002 -1.702462E+001  2.343398E+001
 667.0000     -1.664367E+001 -1.084040E+002 -8.888344E-001 -1.324787E+002 -8.877944E-001 -1.324696E+002 -1.702889E+001  2.251053E+001
 668.0000     -1.665223E+001 -1.098367E+002 -8.919407E-001 -1.338511E+002 -8.893516E-001 -1.338437E+002 -1.703392E+001  2.150169E+001
 669.0000     -1.667247E+001 -1.111895E+002 -8.930701E-001 -1.352389E+002 -8.950210E-001 -1.352224E+002 -1.705899E+001  2.050854E+001
 670.0000     -1.669377E+001 -1.125263E+002 -8.952919E-001 -1.366145E+002 -8.962924E-001 -1.366040E+002 -1.708205E+001  1.951062E+001
 671.0000     -1.672387E+001 -1.138017E+002 -8.976178E-001 -1.379964E+002 -8.997759E-001 -1.379948E+002 -1.711937E+001  1.839495E+001
 672.0000     -1.676062E+001 -1.150714E+002 -9.015239E-001 -1.393893E+002 -9.040918E-001 -1.393841E+002 -1.716761E+001  1.732154E+001
 673.0000     -1.681541E+001 -1.162848E+002 -9.041964E-001 -1.407876E+002 -9.036844E-001 -1.407713E+002 -1.721332E+001  1.618605E+001
 674.0000     -1.685857E+001 -1.174994E+002 -9.071545E-001 -1.421877E+002 -9.078991E-001 -1.421743E+002 -1.727075E+001  1.502281E+001
 675.0000     -1.692155E+001 -1.186707E+002 -9.100722E-001 -1.435963E+002 -9.106762E-001 -1.435953E+002 -1.734497E+001  1.379061E+001
 676.0000     -1.698848E+001 -1.198110E+002 -9.119676E-001 -1.450222E+002 -9.149927E-001 -1.450010E+002 -1.742397E+001  1.256826E+001
 677.0000     -1.706424E+001 -1.208780E+002 -9.144050E-001 -1.464322E+002 -9.163785E-001 -1.464315E+002 -1.751520E+001  1.125425E+001
 678.0000     -1.715078E+001 -1.218917E+002 -9.179237E-001 -1.478605E+002 -9.161665E-001 -1.478499E+002 -1.761906E+001  9.963647E+000
 679.0000     -1.722981E+001 -1.228751E+002 -9.198965E-001 -1.492972E+002 -9.201282E-001 -1.492921E+002 -1.773215E+001  8.576776E+000
 680.0000     -1.732367E+001 -1.237624E+002 -9.224317E-001 -1.507368E+002 -9.217804E-001 -1.507422E+002 -1.785760E+001  7.118000E+000
 681.0000     -1.743009E+001 -1.246908E+002 -9.243811E-001 -1.521989E+002 -9.265909E-001 -1.521866E+002 -1.799056E+001  5.647296E+000
 682.0000     -1.754565E+001 -1.254393E+002 -9.270228E-001 -1.536647E+002 -9.281537E-001 -1.536489E+002 -1.813408E+001  4.071927E+000
 683.0000     -1.766100E+001 -1.262020E+002 -9.312049E-001 -1.551287E+002 -9.300892E-001 -1.551247E+002 -1.829944E+001  2.470276E+000
 684.0000     -1.779370E+001 -1.268539E+002 -9.327961E-001 -1.566090E+002 -9.326025E-001 -1.565952E+002 -1.847435E+001  8.090488E-001
 685.0000     -1.791552E+001 -1.274063E+002 -9.362530E-001 -1.580963E+002 -9.356838E-001 -1.580833E+002 -1.867414E+001 -9.708871E-001
 686.0000     -1.806853E+001 -1.278158E+002 -9.385800E-001 -1.595873E+002 -9.370317E-001 -1.595869E+002 -1.888044E+001 -2.842958E+000
 687.0000     -1.821255E+001 -1.282333E+002 -9.418040E-001 -1.611025E+002 -9.397121E-001 -1.610907E+002 -1.910721E+001 -4.848831E+000
 688.0000     -1.836262E+001 -1.284641E+002 -9.434861E-001 -1.626206E+002 -9.430209E-001 -1.626117E+002 -1.934992E+001 -6.872280E+000
 689.0000     -1.851161E+001 -1.286175E+002 -9.476309E-001 -1.641418E+002 -9.491560E-001 -1.641315E+002 -1.962640E+001 -9.143284E+000
 690.0000     -1.868368E+001 -1.285887E+002 -9.499795E-001 -1.656810E+002 -9.512359E-001 -1.656770E+002 -1.990339E+001 -1.144110E+001
 691.0000     -1.884431E+001 -1.284481E+002 -9.545529E-001 -1.672248E+002 -9.536396E-001 -1.672182E+002 -2.021407E+001 -1.396636E+001
 692.0000     -1.900439E+001 -1.280818E+002 -9.580833E-001 -1.687927E+002 -9.588829E-001 -1.687833E+002 -2.054512E+001 -1.679858E+001
 693.0000     -1.915032E+001 -1.276835E+002 -9.628439E-001 -1.703636E+002 -9.623263E-001 -1.703504E+002 -2.089647E+001 -1.963551E+001
 694.0000     -1.931358E+001 -1.270657E+002 -9.647884E-001 -1.719545E+002 -9.671299E-001 -1.719437E+002 -2.127965E+001 -2.289125E+001
 695.0000     -1.946576E+001 -1.261243E+002 -9.716902E-001 -1.735489E+002 -9.706623E-001 -1.735329E+002 -2.166991E+001 -2.640959E+001
 696.0000     -1.958309E+001 -1.251443E+002 -9.765687E-001 -1.751605E+002 -9.751436E-001 -1.751611E+002 -2.209307E+001 -3.030661E+001
 697.0000     -1.970089E+001 -1.238989E+002 -9.825389E-001 -1.767862E+002 -9.828343E-001 -1.767766E+002 -2.253914E+001 -3.464850E+001
 698.0000     -1.979481E+001 -1.224734E+002 -9.891508E-001 -1.784291E+002 -9.888740E-001 -1.784304E+002 -2.299254E+001 -3.948693E+001
 699.0000     -1.986209E+001 -1.209478E+002 -9.967877E-001  1.799207E+002 -9.971928E-001  1.799165E+002 -2.343305E+001 -4.487290E+001
 700.0000     -1.988666E+001 -1.191650E+002 -1.001916E+000  1.782441E+002 -1.002411E+000  1.782411E+002 -2.388946E+001 -5.097060E+001
 701.0000     -1.988193E+001 -1.172986E+002 -1.011510E+000  1.765490E+002 -1.012593E+000  1.765689E+002 -2.428639E+001 -5.787125E+001
 702.0000     -1.983428E+001 -1.153078E+002 -1.020807E+000  1.748516E+002 -1.019068E+000  1.748695E+002 -2.463893E+001 -6.560514E+001
 703.0000     -1.974444E+001 -1.132945E+002 -1.029355E+000  1.731313E+002 -1.029292E+000  1.731516E+002 -2.487870E+001 -7.392374E+001
 704.0000     -1.959432E+001 -1.112486E+002 -1.041179E+000  1.713988E+002 -1.042048E+000  1.714074E+002 -2.500283E+001 -8.279950E+001
 705.0000     -1.940723E+001 -1.093309E+002 -1.052378E+000  1.696465E+002 -1.052113E+000  1.696624E+002 -2.494302E+001 -9.209353E+001
 706.0000     -1.916897E+001 -1.073403E+002 -1.064957E+000  1.678819E+002 -1.064717E+000  1.678807E+002 -2.470066E+001 -1.015626E+002
 707.0000     -1.890026E+001 -1.055577E+002 -1.080356E+000  1.660869E+002 -1.079334E+000  1.660953E+002 -2.432337E+001 -1.107226E+002
 708.0000     -1.857652E+001 -1.039970E+002 -1.093172E+000  1.642737E+002 -1.094666E+000  1.642886E+002 -2.377878E+001 -1.192516E+002
 709.0000     -1.822230E+001 -1.025997E+002 -1.109437E+000  1.624563E+002 -1.110795E+000  1.624653E+002 -2.313943E+001 -1.271353E+002
 710.0000     -1.784538E+001 -1.014076E+002 -1.129230E+000  1.606019E+002 -1.129421E+000  1.606094E+002 -2.242490E+001 -1.342093E+002
 711.0000     -1.744572E+001 -1.004746E+002 -1.147876E+000  1.587457E+002 -1.148813E+000  1.587545E+002 -2.166049E+001 -1.406507E+002
 712.0000     -1.702260E+001 -9.974500E+001 -1.167690E+000  1.568586E+002 -1.170451E+000  1.568637E+002 -2.089896E+001 -1.463900E+002
 713.0000     -1.658876E+001 -9.928757E+001 -1.190895E+000  1.549446E+002 -1.192952E+000  1.549534E+002 -2.012840E+001 -1.516163E+002
 714.0000     -1.614273E+001 -9.901005E+001 -1.215055E+000  1.530228E+002 -1.217644E+000  1.530246E+002 -1.936998E+001 -1.562953E+002
 715.0000     -1.569706E+001 -9.903320E+001 -1.243814E+000  1.510590E+002 -1.243897E+000  1.510835E+002 -1.862667E+001 -1.605226E+002
 716.0000     -1.525136E+001 -9.922619E+001 -1.273079E+000  1.490949E+002 -1.274521E+000  1.491107E+002 -1.791604E+001 -1.644465E+002
 717.0000     -1.479925E+001 -9.965207E+001 -1.305524E+000  1.470907E+002 -1.303758E+000  1.471094E+002 -1.721751E+001 -1.680445E+002
 718.0000     -1.435228E+001 -1.002585E+002 -1.335371E+000  1.450728E+002 -1.338484E+000  1.450893E+002 -1.654739E+001 -1.713986E+002
 719.0000     -1.390488E+001 -1.010413E+002 -1.373996E+000  1.430157E+002 -1.373993E+000  1.430482E+002 -1.589860E+001 -1.745488E+002
 720.0000     -1.346724E+001 -1.019802E+002 -1.413085E+000  1.409683E+002 -1.413707E+000  1.409669E+002 -1.527675E+001 -1.775559E+002
 721.0000     -1.303872E+001 -1.031127E+002 -1.456915E+000  1.388677E+002 -1.453772E+000  1.388827E+002 -1.467714E+001  1.796188E+002
 722.0000     -1.261336E+001 -1.043486E+002 -1.502652E+000  1.367612E+002 -1.501821E+000  1.367757E+002 -1.409908E+001  1.769227E+002
 723.0000     -1.219870E+001 -1.057648E+002 -1.550189E+000  1.346227E+002 -1.550394E+000  1.346403E+002 -1.354001E+001  1.743079E+002
 724.0000     -1.179269E+001 -1.072940E+002 -1.603433E+000  1.324574E+002 -1.603617E+000  1.324686E+002 -1.300707E+001  1.717959E+002
 725.0000     -1.139151E+001 -1.089526E+002 -1.657293E+000  1.302639E+002 -1.659109E+000  1.302784E+002 -1.248948E+001  1.693489E+002
 726.0000     -1.100358E+001 -1.107435E+002 -1.719500E+000  1.280765E+002 -1.717899E+000  1.280660E+002 -1.198969E+001  1.669795E+002
 727.0000     -1.062296E+001 -1.126365E+002 -1.781020E+000  1.258189E+002 -1.781756E+000  1.258382E+002 -1.150587E+001  1.646539E+002
 728.0000     -1.025584E+001 -1.146433E+002 -1.851471E+000  1.235613E+002 -1.851692E+000  1.235786E+002 -1.104014E+001  1.623870E+002
 729.0000     -9.894436E+000 -1.167348E+002 -1.925702E+000  1.212734E+002 -1.924439E+000  1.212894E+002 -1.059004E+001  1.601331E+002
 730.0000     -9.543711E+000 -1.189258E+002 -2.002064E+000  1.189699E+002 -2.002893E+000  1.189824E+002 -1.015762E+001  1.579381E+002
 731.0000     -9.200217E+000 -1.212207E+002 -2.086305E+000  1.166354E+002 -2.086102E+000  1.166453E+002 -9.736142E+000  1.557641E+002
 732.0000     -8.868746E+000 -1.235955E+002 -2.175070E+000  1.142819E+002 -2.174201E+000  1.142890E+002 -9.331955E+000  1.536217E+002
 733.0000     -8.548585E+000 -1.260673E+002 -2.268210E+000  1.118988E+002 -2.268296E+000  1.119061E+002 -8.938408E+000  1.515085E+002
 734.0000     -8.234626E+000 -1.285724E+002 -2.368428E+000  1.094952E+002 -2.369018E+000  1.095112E+002 -8.560717E+000  1.493960E+002
 735.0000     -7.933426E+000 -1.312196E+002 -2.475268E+000  1.070636E+002 -2.473778E+000  1.070797E+002 -8.191815E+000  1.473023E+002
 736.0000     -7.639406E+000 -1.338947E+002 -2.584676E+000  1.046229E+002 -2.587610E+000  1.046314E+002 -7.837669E+000  1.452409E+002
 737.0000     -7.356335E+000 -1.366527E+002 -2.706229E+000  1.021479E+002 -2.707385E+000  1.021652E+002 -7.496256E+000  1.431712E+002
 738.0000     -7.080907E+000 -1.395045E+002 -2.831766E+000  9.966191E+001 -2.831737E+000  9.966619E+001 -7.166682E+000  1.411158E+002
 739.0000     -6.814802E+000 -1.423935E+002 -2.962456E+000  9.715965E+001 -2.963534E+000  9.716698E+001 -6.847620E+000  1.391048E+002
 740.0000     -6.561454E+000 -1.453432E+002 -3.103612E+000  9.462263E+001 -3.105268E+000  9.463320E+001 -6.539288E+000  1.370747E+002
 741.0000     -6.315571E+000 -1.483689E+002 -3.251517E+000  9.208089E+001 -3.251675E+000  9.208483E+001 -6.242764E+000  1.350410E+002
 742.0000     -6.075690E+000 -1.514515E+002 -3.407051E+000  8.953031E+001 -3.409855E+000  8.952150E+001 -5.958586E+000  1.330349E+002
 743.0000     -5.849049E+000 -1.546020E+002 -3.569524E+000  8.693592E+001 -3.571555E+000  8.694495E+001 -5.680142E+000  1.310409E+002
 744.0000     -5.629568E+000 -1.577944E+002 -3.742987E+000  8.433369E+001 -3.743669E+000  8.434542E+001 -5.414937E+000  1.290458E+002
 745.0000     -5.419518E+000 -1.610347E+002 -3.924986E+000  8.173753E+001 -3.924481E+000  8.174235E+001 -5.162598E+000  1.270824E+002
 746.0000     -5.216287E+000 -1.643403E+002 -4.113226E+000  7.912216E+001 -4.113966E+000  7.912966E+001 -4.913763E+000  1.251097E+002
 747.0000     -5.023225E+000 -1.676690E+002 -4.311585E+000  7.648613E+001 -4.313758E+000  7.649242E+001 -4.680470E+000  1.231554E+002
 748.0000     -4.839399E+000 -1.710828E+002 -4.522640E+000  7.384918E+001 -4.521172E+000  7.387076E+001 -4.453545E+000  1.212118E+002
 749.0000     -4.662993E+000 -1.745218E+002 -4.738725E+000  7.119473E+001 -4.739797E+000  7.122109E+001 -4.236914E+000  1.192831E+002
 750.0000     -4.494980E+000 -1.779931E+002 -4.966727E+000  6.856142E+001 -4.967073E+000  6.855690E+001 -4.028455E+000  1.173619E+002
 751.0000     -4.334441E+000  1.784829E+002 -5.207235E+000  6.587538E+001 -5.204499E+000  6.589332E+001 -3.830291E+000  1.154378E+002
 752.0000     -4.183504E+000  1.749238E+002 -5.453928E+000  6.322934E+001 -5.453464E+000  6.323011E+001 -3.640776E+000  1.135349E+002
 753.0000     -4.036839E+000  1.713239E+002 -5.712773E+000  6.056096E+001 -5.713170E+000  6.057474E+001 -3.458323E+000  1.116604E+002
 754.0000     -3.899737E+000  1.677027E+002 -5.982991E+000  5.791005E+001 -5.984816E+000  5.790115E+001 -3.286801E+000  1.098073E+002
 755.0000     -3.772318E+000  1.640489E+002 -6.264331E+000  5.524323E+001 -6.267140E+000  5.527121E+001 -3.122211E+000  1.079578E+002
 756.0000     -3.649067E+000  1.603606E+002 -6.557722E+000  5.261001E+001 -6.557634E+000  5.260988E+001 -2.963857E+000  1.061219E+002
 757.0000     -3.533819E+000  1.566573E+002 -6.863205E+000  4.995935E+001 -6.862516E+000  4.998241E+001 -2.815372E+000  1.043130E+002
 758.0000     -3.425125E+000  1.529120E+002 -7.178667E+000  4.733744E+001 -7.179269E+000  4.733020E+001 -2.674728E+000  1.025171E+002
 759.0000     -3.320531E+000  1.491569E+002 -7.506100E+000  4.470473E+001 -7.507601E+000  4.469716E+001 -2.539306E+000  1.007298E+002
 760.0000     -3.223583E+000  1.453733E+002 -7.847952E+000  4.206762E+001 -7.848951E+000  4.209256E+001 -2.414472E+000  9.897674E+001
 761.0000     -3.134858E+000  1.415769E+002 -8.202312E+000  3.946886E+001 -8.203421E+000  3.949529E+001 -2.293481E+000  9.725420E+001
 762.0000     -3.050335E+000  1.377644E+002 -8.568876E+000  3.689044E+001 -8.571355E+000  3.690832E+001 -2.180015E+000  9.553896E+001
 763.0000     -2.969378E+000  1.339429E+002 -8.949063E+000  3.432946E+001 -8.949471E+000  3.434791E+001 -2.071711E+000  9.385226E+001
 764.0000     -2.893728E+000  1.301289E+002 -9.341843E+000  3.179003E+001 -9.343880E+000  3.179226E+001 -1.972664E+000  9.217842E+001
 765.0000     -2.823265E+000  1.262772E+002 -9.748897E+000  2.927882E+001 -9.752677E+000  2.928745E+001 -1.876308E+000  9.054976E+001
 766.0000     -2.758924E+000  1.224520E+002 -1.017415E+001  2.679019E+001 -1.017508E+001  2.679975E+001 -1.788174E+000  8.894250E+001
 767.0000     -2.697713E+000  1.186056E+002 -1.061186E+001  2.431988E+001 -1.061425E+001  2.433781E+001 -1.706825E+000  8.734926E+001
 768.0000     -2.640369E+000  1.147532E+002 -1.106466E+001  2.188012E+001 -1.106288E+001  2.187952E+001 -1.624622E+000  8.577203E+001
 769.0000     -2.586720E+000  1.109197E+002 -1.153414E+001  1.947454E+001 -1.153403E+001  1.949176E+001 -1.553159E+000  8.422533E+001
 770.0000     -2.536725E+000  1.070850E+002 -1.201871E+001  1.712632E+001 -1.201940E+001  1.713210E+001 -1.484235E+000  8.273056E+001
 771.0000     -2.488525E+000  1.032735E+002 -1.252043E+001  1.480027E+001 -1.252305E+001  1.480624E+001 -1.420722E+000  8.122731E+001
 772.0000     -2.445171E+000  9.945520E+001 -1.304095E+001  1.252620E+001 -1.304198E+001  1.252439E+001 -1.360733E+000  7.977030E+001
 773.0000     -2.401729E+000  9.564109E+001 -1.357915E+001  1.026914E+001 -1.357944E+001  1.029231E+001 -1.304346E+000  7.833540E+001
 774.0000     -2.361687E+000  9.188070E+001 -1.413825E+001  8.110928E+000 -1.413715E+001  8.122238E+000 -1.251912E+000  7.694260E+001
 775.0000     -2.326802E+000  8.810738E+001 -1.471731E+001  5.968659E+000 -1.471930E+001  5.989890E+000 -1.205075E+000  7.554114E+001
 776.0000     -2.288676E+000  8.436497E+001 -1.531707E+001  3.906876E+000 -1.531897E+001  3.914781E+000 -1.158909E+000  7.418153E+001
 777.0000     -2.256917E+000  8.064883E+001 -1.594558E+001  1.919565E+000 -1.594368E+001  1.931270E+000 -1.119881E+000  7.285846E+001
 778.0000     -2.227269E+000  7.694466E+001 -1.659235E+001 -1.863918E-002 -1.659497E+001 -1.390962E-004 -1.079498E+000  7.154602E+001
 779.0000     -2.193894E+000  7.328558E+001 -1.726784E+001 -1.852426E+000 -1.726991E+001 -1.818175E+000 -1.045382E+000  7.028864E+001
 780.0000     -2.165773E+000  6.964729E+001 -1.797335E+001 -3.590600E+000 -1.797556E+001 -3.592699E+000 -1.011323E+000  6.900552E+001
 781.0000     -2.139116E+000  6.604604E+001 -1.871200E+001 -5.232402E+000 -1.871068E+001 -5.232573E+000 -9.800465E-001  6.778716E+001
 782.0000     -2.110108E+000  6.245291E+001 -1.948004E+001 -6.762727E+000 -1.947959E+001 -6.774929E+000 -9.523868E-001  6.657333E+001
 783.0000     -2.083042E+000  5.891914E+001 -2.028863E+001 -8.155614E+000 -2.028804E+001 -8.140028E+000 -9.253863E-001  6.539642E+001
 784.0000     -2.057974E+000  5.539481E+001 -2.114038E+001 -9.388250E+000 -2.113936E+001 -9.381317E+000 -9.015881E-001  6.423705E+001
 785.0000     -2.033978E+000  5.194429E+001 -2.203512E+001 -1.040243E+001 -2.203694E+001 -1.039495E+001 -8.775376E-001  6.309742E+001
 786.0000     -2.010393E+000  4.853059E+001 -2.298553E+001 -1.118478E+001 -2.298479E+001 -1.117498E+001 -8.588302E-001  6.198955E+001
 787.0000     -1.984293E+000  4.510909E+001 -2.399345E+001 -1.173061E+001 -2.399113E+001 -1.170540E+001 -8.383999E-001  6.088839E+001
 788.0000     -1.960767E+000  4.178358E+001 -2.506405E+001 -1.183185E+001 -2.506480E+001 -1.182542E+001 -8.203396E-001  5.982505E+001
 789.0000     -1.938225E+000  3.845935E+001 -2.621399E+001 -1.152112E+001 -2.621035E+001 -1.150481E+001 -8.021670E-001  5.876624E+001
 790.0000     -1.914647E+000  3.521632E+001 -2.744166E+001 -1.054190E+001 -2.744644E+001 -1.052914E+001 -7.881797E-001  5.774108E+001
 791.0000     -1.894097E+000  3.198710E+001 -2.876670E+001 -8.753982E+000 -2.877046E+001 -8.737130E+000 -7.720352E-001  5.671696E+001
 792.0000     -1.870435E+000  2.881307E+001 -3.018209E+001 -5.754320E+000 -3.018711E+001 -5.746578E+000 -7.570364E-001  5.573497E+001
 793.0000     -1.846942E+000  2.566984E+001 -3.168434E+001 -1.206502E+000 -3.168791E+001 -1.241029E+000 -7.461875E-001  5.474636E+001
 794.0000     -1.826193E+000  2.257744E+001 -3.320267E+001  5.602897E+000 -3.320176E+001  5.607334E+000 -7.334657E-001  5.380053E+001
 795.0000     -1.804500E+000  1.954154E+001 -3.462523E+001  1.532014E+001 -3.462400E+001  1.537992E+001 -7.241589E-001  5.286438E+001
 796.0000     -1.782542E+000  1.655015E+001 -3.570188E+001  2.806691E+001 -3.568679E+001  2.807762E+001 -7.105861E-001  5.192545E+001
 797.0000     -1.759648E+000  1.359434E+001 -3.616192E+001  4.268777E+001 -3.616361E+001  4.267321E+001 -7.020040E-001  5.103346E+001
 798.0000     -1.740211E+000  1.068535E+001 -3.591942E+001  5.673617E+001 -3.591264E+001  5.675682E+001 -6.932492E-001  5.013453E+001
 799.0000     -1.718389E+000  7.822290E+000 -3.517015E+001  6.819817E+001 -3.518394E+001  6.812309E+001 -6.853117E-001  4.925392E+001
 800.0000     -1.696507E+000  5.008220E+000 -3.421841E+001  7.663393E+001 -3.422814E+001  7.657423E+001 -6.743777E-001  4.840162E+001
 801.0000     -1.676176E+000  2.227119E+000 -3.323750E+001  8.248441E+001 -3.324116E+001  8.250333E+001 -6.664056E-001  4.754178E+001
 802.0000     -1.654412E+000 -4.931899E-001 -3.230803E+001  8.651834E+001 -3.230954E+001  8.651601E+001 -6.591312E-001  4.670900E+001
 803.0000     -1.634168E+000 -3.170786E+000 -3.146494E+001  8.919464E+001 -3.147006E+001  8.919095E+001 -6.517200E-001  4.588754E+001
 804.0000     -1.614274E+000 -5.819403E+000 -3.071866E+001  9.094122E+001 -3.072556E+001  9.094616E+001 -6.452124E-001  4.508590E+001
 805.0000     -1.593990E+000 -8.412115E+000 -3.005856E+001  9.204227E+001 -3.006562E+001  9.203304E+001 -6.399583E-001  4.428232E+001
 806.0000     -1.573844E+000 -1.096513E+001 -2.947464E+001  9.258492E+001 -2.947690E+001  9.260183E+001 -6.315703E-001  4.350074E+001
 807.0000     -1.554660E+000 -1.348504E+001 -2.896028E+001  9.282605E+001 -2.896219E+001  9.280984E+001 -6.252337E-001  4.272990E+001
 808.0000     -1.534907E+000 -1.594841E+001 -2.850620E+001  9.277637E+001 -2.850515E+001  9.280158E+001 -6.194774E-001  4.196250E+001
 809.0000     -1.515857E+000 -1.838768E+001 -2.809599E+001  9.249808E+001 -2.810942E+001  9.252636E+001 -6.143538E-001  4.120477E+001
 810.0000     -1.497478E+000 -2.077461E+001 -2.774730E+001  9.208128E+001 -2.774729E+001  9.210179E+001 -6.071355E-001  4.046510E+001
 811.0000     -1.478428E+000 -2.311451E+001 -2.743408E+001  9.152789E+001 -2.743162E+001  9.154772E+001 -6.024658E-001  3.972788E+001
 812.0000     -1.459007E+000 -2.542343E+001 -2.715328E+001  9.088439E+001 -2.715969E+001  9.090476E+001 -5.965185E-001  3.900151E+001
 813.0000     -1.441310E+000 -2.771196E+001 -2.690833E+001  9.016710E+001 -2.691113E+001  9.017154E+001 -5.924361E-001  3.829017E+001
 814.0000     -1.424329E+000 -2.994779E+001 -2.669504E+001  8.935681E+001 -2.669182E+001  8.935146E+001 -5.860937E-001  3.758094E+001
 815.0000     -1.402376E+000 -3.213915E+001 -2.650019E+001  8.853898E+001 -2.650306E+001  8.852754E+001 -5.813348E-001  3.689471E+001
 816.0000     -1.389927E+000 -3.430376E+001 -2.633758E+001  8.765200E+001 -2.633650E+001  8.767630E+001 -5.755603E-001  3.619559E+001
 817.0000     -1.369672E+000 -3.642839E+001 -2.619366E+001  8.675803E+001 -2.619169E+001  8.675144E+001 -5.723708E-001  3.552162E+001
 818.0000     -1.354087E+000 -3.851713E+001 -2.606762E+001  8.580620E+001 -2.606771E+001  8.583417E+001 -5.653293E-001  3.485044E+001
 819.0000     -1.337645E+000 -4.057881E+001 -2.596171E+001  8.485676E+001 -2.596057E+001  8.488448E+001 -5.626733E-001  3.418435E+001
 820.0000     -1.322031E+000 -4.261178E+001 -2.587435E+001  8.386458E+001 -2.586950E+001  8.389626E+001 -5.559835E-001  3.351971E+001
 821.0000     -1.305222E+000 -4.458827E+001 -2.579626E+001  8.292417E+001 -2.579454E+001  8.289622E+001 -5.539122E-001  3.287312E+001
 822.0000     -1.289549E+000 -4.655479E+001 -2.573139E+001  8.194280E+001 -2.573600E+001  8.194111E+001 -5.488134E-001  3.223550E+001
 823.0000     -1.276862E+000 -4.848845E+001 -2.568975E+001  8.092389E+001 -2.568606E+001  8.094967E+001 -5.453043E-001  3.159971E+001
 824.0000     -1.260152E+000 -5.038832E+001 -2.564874E+001  7.994097E+001 -2.564960E+001  7.996417E+001 -5.389141E-001  3.096646E+001
 825.0000     -1.245671E+000 -5.226466E+001 -2.562557E+001  7.893851E+001 -2.562047E+001  7.894814E+001 -5.348800E-001  3.033308E+001
 826.0000     -1.231773E+000 -5.409689E+001 -2.560914E+001  7.793199E+001 -2.561012E+001  7.795305E+001 -5.317327E-001  2.972685E+001
 827.0000     -1.217466E+000 -5.590310E+001 -2.560415E+001  7.696397E+001 -2.560690E+001  7.699075E+001 -5.243555E-001  2.911196E+001
 828.0000     -1.202427E+000 -5.769930E+001 -2.560492E+001  7.596037E+001 -2.561295E+001  7.597979E+001 -5.220025E-001  2.850957E+001
 829.0000     -1.188817E+000 -5.945365E+001 -2.562153E+001  7.497464E+001 -2.562492E+001  7.498512E+001 -5.209097E-001  2.791557E+001
 830.0000     -1.177583E+000 -6.117641E+001 -2.564518E+001  7.400895E+001 -2.564396E+001  7.402190E+001 -5.146050E-001  2.732390E+001
 831.0000     -1.164143E+000 -6.289429E+001 -2.567086E+001  7.303374E+001 -2.566949E+001  7.303413E+001 -5.085043E-001  2.673087E+001
 832.0000     -1.151285E+000 -6.457178E+001 -2.570640E+001  7.206198E+001 -2.571070E+001  7.205614E+001 -5.077060E-001  2.615376E+001
 833.0000     -1.138502E+000 -6.621721E+001 -2.575350E+001  7.108479E+001 -2.575111E+001  7.109008E+001 -5.015365E-001  2.557207E+001
 834.0000     -1.127225E+000 -6.785666E+001 -2.579724E+001  7.013371E+001 -2.579983E+001  7.016071E+001 -4.994665E-001  2.499406E+001
 835.0000     -1.114861E+000 -6.945830E+001 -2.585226E+001  6.917403E+001 -2.585460E+001  6.921410E+001 -4.954350E-001  2.442849E+001
 836.0000     -1.104191E+000 -7.105176E+001 -2.591504E+001  6.824724E+001 -2.591665E+001  6.822018E+001 -4.915701E-001  2.386596E+001
 837.0000     -1.092273E+000 -7.262140E+001 -2.597910E+001  6.729124E+001 -2.598307E+001  6.731940E+001 -4.878079E-001  2.332049E+001
 838.0000     -1.084066E+000 -7.415209E+001 -2.605361E+001  6.637012E+001 -2.605580E+001  6.638195E+001 -4.854335E-001  2.276772E+001
 839.0000     -1.072569E+000 -7.567049E+001 -2.613027E+001  6.543675E+001 -2.612983E+001  6.547805E+001 -4.806606E-001  2.221831E+001
 840.0000     -1.059848E+000 -7.716469E+001 -2.621143E+001  6.452208E+001 -2.621685E+001  6.454640E+001 -4.764265E-001  2.168314E+001
 841.0000     -1.052439E+000 -7.864602E+001 -2.629629E+001  6.363028E+001 -2.630159E+001  6.362421E+001 -4.754742E-001  2.113436E+001
 842.0000     -1.041191E+000 -8.010477E+001 -2.639019E+001  6.273849E+001 -2.639260E+001  6.273672E+001 -4.719851E-001  2.061306E+001
 843.0000     -1.034204E+000 -8.153721E+001 -2.648592E+001  6.184751E+001 -2.648452E+001  6.181809E+001 -4.684377E-001  2.006917E+001
 844.0000     -1.022702E+000 -8.297102E+001 -2.658415E+001  6.092554E+001 -2.658390E+001  6.097374E+001 -4.643830E-001  1.954198E+001
 845.0000     -1.014329E+000 -8.437230E+001 -2.668787E+001  6.009296E+001 -2.668505E+001  6.011825E+001 -4.592221E-001  1.902187E+001
 846.0000     -1.004304E+000 -8.575320E+001 -2.679322E+001  5.919147E+001 -2.679571E+001  5.920996E+001 -4.570564E-001  1.850009E+001
 847.0000     -9.961223E-001 -8.712267E+001 -2.690809E+001  5.836132E+001 -2.690759E+001  5.836234E+001 -4.549184E-001  1.799577E+001
 848.0000     -9.876823E-001 -8.846803E+001 -2.701959E+001  5.750518E+001 -2.702671E+001  5.752961E+001 -4.523502E-001  1.747858E+001
 849.0000     -9.785627E-001 -8.981866E+001 -2.713969E+001  5.665332E+001 -2.713894E+001  5.667543E+001 -4.506456E-001  1.697347E+001
 850.0000     -9.695997E-001 -9.112719E+001 -2.725936E+001  5.582592E+001 -2.725984E+001  5.583727E+001 -4.438976E-001  1.646582E+001
 851.0000     -9.646050E-001 -9.242541E+001 -2.738772E+001  5.498139E+001 -2.738783E+001  5.501783E+001 -4.423074E-001  1.596932E+001
 852.0000     -9.542801E-001 -9.370713E+001 -2.751647E+001  5.416521E+001 -2.751379E+001  5.418973E+001 -4.402739E-001  1.546988E+001
 853.0000     -9.480905E-001 -9.497805E+001 -2.764616E+001  5.335373E+001 -2.764781E+001  5.343145E+001 -4.363187E-001  1.498670E+001
 854.0000     -9.422297E-001 -9.623583E+001 -2.778199E+001  5.255693E+001 -2.778273E+001  5.261244E+001 -4.335036E-001  1.450077E+001
 855.0000     -9.345543E-001 -9.747725E+001 -2.791935E+001  5.175286E+001 -2.791987E+001  5.179644E+001 -4.331136E-001  1.401264E+001
 856.0000     -9.271098E-001 -9.871059E+001 -2.806127E+001  5.097618E+001 -2.806402E+001  5.100781E+001 -4.276624E-001  1.353278E+001
 857.0000     -9.211211E-001 -9.992502E+001 -2.820306E+001  5.021973E+001 -2.820814E+001  5.024931E+001 -4.260897E-001  1.306345E+001
 858.0000     -9.136884E-001 -1.011088E+002 -2.835094E+001  4.941383E+001 -2.835616E+001  4.948190E+001 -4.229303E-001  1.258958E+001
 859.0000     -9.069218E-001 -1.023058E+002 -2.850119E+001  4.867124E+001 -2.850245E+001  4.870327E+001 -4.208334E-001  1.210897E+001
 860.0000     -9.001876E-001 -1.034753E+002 -2.865847E+001  4.791011E+001 -2.865091E+001  4.793097E+001 -4.175788E-001  1.163630E+001
 861.0000     -8.958072E-001 -1.046381E+002 -2.881168E+001  4.715483E+001 -2.881060E+001  4.720491E+001 -4.158684E-001  1.116440E+001
 862.0000     -8.887054E-001 -1.057921E+002 -2.897009E+001  4.641974E+001 -2.897668E+001  4.645922E+001 -4.130913E-001  1.071263E+001
 863.0000     -8.854601E-001 -1.069243E+002 -2.913499E+001  4.567342E+001 -2.913983E+001  4.571149E+001 -4.103664E-001  1.024886E+001
 864.0000     -8.776215E-001 -1.080509E+002 -2.929899E+001  4.493165E+001 -2.930039E+001  4.497572E+001 -4.074058E-001  9.794444E+000
 865.0000     -8.729768E-001 -1.091678E+002 -2.947028E+001  4.423105E+001 -2.946875E+001  4.424041E+001 -4.057524E-001  9.341679E+000
 866.0000     -8.661999E-001 -1.102654E+002 -2.963909E+001  4.352877E+001 -2.964491E+001  4.353942E+001 -4.032870E-001  8.890909E+000
 867.0000     -8.614431E-001 -1.113648E+002 -2.981755E+001  4.285056E+001 -2.981837E+001  4.282936E+001 -4.015472E-001  8.448584E+000
 868.0000     -8.570728E-001 -1.124514E+002 -2.999296E+001  4.211693E+001 -2.999694E+001  4.212271E+001 -3.981605E-001  8.003277E+000
 869.0000     -8.526678E-001 -1.135090E+002 -3.017297E+001  4.143167E+001 -3.017609E+001  4.143267E+001 -3.969206E-001  7.554096E+000
 870.0000     -8.461658E-001 -1.145664E+002 -3.035443E+001  4.074332E+001 -3.035626E+001  4.075645E+001 -3.935132E-001  7.116196E+000
 875.0000     -8.264447E-001 -1.197279E+002 -3.132056E+001  3.741242E+001 -3.132269E+001  3.744693E+001 -3.848171E-001  4.963630E+000
 880.0000     -8.061519E-001 -1.246735E+002 -3.237276E+001  3.427417E+001 -3.238192E+001  3.434315E+001 -3.735853E-001  2.855269E+000
 885.0000     -7.879648E-001 -1.293971E+002 -3.352979E+001  3.137330E+001 -3.353583E+001  3.141166E+001 -3.661066E-001  8.094026E-001
 890.0000     -7.705868E-001 -1.339576E+002 -3.479509E+001  2.863123E+001 -3.479972E+001  2.862051E+001 -3.577148E-001 -1.185724E+000
 895.0000     -7.568542E-001 -1.383439E+002 -3.621084E+001  2.616303E+001 -3.621050E+001  2.612804E+001 -3.502288E-001 -3.120489E+000
 900.0000     -7.444687E-001 -1.425733E+002 -3.780597E+001  2.392637E+001 -3.781053E+001  2.401673E+001 -3.414451E-001 -5.008067E+000
 905.0000     -7.345253E-001 -1.466706E+002 -3.964432E+001  2.219926E+001 -3.964743E+001  2.222874E+001 -3.379141E-001 -6.873466E+000
 910.0000     -7.237759E-001 -1.506364E+002 -4.185288E+001  2.110615E+001 -4.184447E+001  2.115040E+001 -3.315938E-001 -8.689382E+000
 915.0000     -7.163939E-001 -1.544931E+002 -4.458112E+001  2.133976E+001 -4.457500E+001  2.134917E+001 -3.228810E-001 -1.047211E+001
 920.0000     -7.074468E-001 -1.582583E+002 -4.825525E+001  2.469165E+001 -4.828558E+001  2.490700E+001 -3.202293E-001 -1.220587E+001
 925.0000     -7.022832E-001 -1.619471E+002 -5.369550E+001  3.858862E+001 -5.373947E+001  3.853543E+001 -3.143086E-001 -1.390118E+001
 930.0000     -6.971330E-001 -1.655164E+002 -5.876549E+001  1.001488E+002 -5.867913E+001  1.000993E+002 -3.103851E-001 -1.557751E+001
 935.0000     -6.909327E-001 -1.690194E+002 -5.297897E+001  1.487162E+002 -5.299217E+001  1.489513E+002 -3.053022E-001 -1.721427E+001
 940.0000     -6.871676E-001 -1.724508E+002 -4.845153E+001  1.595681E+002 -4.845140E+001  1.596670E+002 -3.009922E-001 -1.881664E+001
 945.0000     -6.809562E-001 -1.758178E+002 -4.551918E+001  1.621846E+002 -4.551883E+001  1.621798E+002 -2.960458E-001 -2.039850E+001
 950.0000     -6.781797E-001 -1.791312E+002 -4.339214E+001  1.625142E+002 -4.341127E+001  1.625124E+002 -2.928579E-001 -2.197672E+001
 955.0000     -6.757920E-001  1.776281E+002 -4.177787E+001  1.616900E+002 -4.177625E+001  1.617330E+002 -2.902160E-001 -2.350195E+001
 960.0000     -6.727532E-001  1.744101E+002 -4.048563E+001  1.604850E+002 -4.048922E+001  1.606531E+002 -2.856799E-001 -2.501033E+001
 965.0000     -6.713943E-001  1.712606E+002 -3.941692E+001  1.589635E+002 -3.941482E+001  1.590788E+002 -2.817245E-001 -2.649879E+001
 970.0000     -6.677318E-001  1.681577E+002 -3.851479E+001  1.573205E+002 -3.851284E+001  1.573714E+002 -2.827888E-001 -2.796065E+001
 975.0000     -6.655957E-001  1.650897E+002 -3.772784E+001  1.555103E+002 -3.774004E+001  1.555981E+002 -2.795439E-001 -2.940812E+001
 980.0000     -6.633795E-001  1.620537E+002 -3.706526E+001  1.536647E+002 -3.706024E+001  1.537149E+002 -2.760007E-001 -3.083896E+001
 985.0000     -6.624461E-001  1.590602E+002 -3.645335E+001  1.517895E+002 -3.646342E+001  1.517871E+002 -2.731375E-001 -3.225093E+001
 990.0000     -6.615623E-001  1.560972E+002 -3.593248E+001  1.498441E+002 -3.593910E+001  1.498508E+002 -2.708284E-001 -3.362460E+001
 995.0000     -6.600807E-001  1.531646E+002 -3.546368E+001  1.479434E+002 -3.545434E+001  1.479113E+002 -2.710861E-001 -3.499250E+001
1000.0000     -6.594964E-001  1.502333E+002 -3.503368E+001  1.459439E+002 -3.504063E+001  1.459694E+002 -2.686381E-001 -3.634968E+001
1005.0000     -6.591584E-001  1.473576E+002 -3.465498E+001  1.440439E+002 -3.466255E+001  1.440147E+002 -2.670941E-001 -3.769615E+001
1010.0000     -6.572269E-001  1.445093E+002 -3.430407E+001  1.421056E+002 -3.430984E+001  1.421012E+002 -2.645903E-001 -3.900053E+001
1015.0000     -6.563568E-001  1.416692E+002 -3.398922E+001  1.401569E+002 -3.398850E+001  1.401369E+002 -2.614588E-001 -4.031741E+001
1020.0000     -6.561462E-001  1.388259E+002 -3.369619E+001  1.381191E+002 -3.369328E+001  1.381407E+002 -2.598811E-001 -4.160954E+001
1025.0000     -6.570344E-001  1.360226E+002 -3.343045E+001  1.362188E+002 -3.343610E+001  1.362400E+002 -2.596400E-001 -4.288390E+001
1030.0000     -6.543402E-001  1.332239E+002 -3.318309E+001  1.342487E+002 -3.317810E+001  1.342715E+002 -2.574821E-001 -4.414237E+001
1035.0000     -6.551549E-001  1.304554E+002 -3.294891E+001  1.323769E+002 -3.295553E+001  1.323604E+002 -2.571160E-001 -4.539237E+001
1040.0000     -6.549190E-001  1.276993E+002 -3.273932E+001  1.303812E+002 -3.274263E+001  1.304306E+002 -2.566160E-001 -4.665057E+001
1045.0000     -6.543034E-001  1.249486E+002 -3.254559E+001  1.285357E+002 -3.254853E+001  1.284887E+002 -2.526315E-001 -4.786757E+001
1050.0000     -6.542255E-001  1.222097E+002 -3.236277E+001  1.265500E+002 -3.236085E+001  1.265944E+002 -2.551897E-001 -4.908336E+001
1055.0000     -6.523238E-001  1.194758E+002 -3.219408E+001  1.246501E+002 -3.219512E+001  1.246133E+002 -2.528276E-001 -5.029049E+001
1060.0000     -6.542834E-001  1.167588E+002 -3.203449E+001  1.227461E+002 -3.203663E+001  1.227557E+002 -2.525833E-001 -5.148477E+001
1065.0000     -6.520697E-001  1.140527E+002 -3.188603E+001  1.208087E+002 -3.188785E+001  1.208316E+002 -2.515056E-001 -5.267379E+001
1070.0000     -6.538007E-001  1.113379E+002 -3.174847E+001  1.189257E+002 -3.175357E+001  1.189423E+002 -2.514422E-001 -5.384420E+001
1075.0000     -6.545881E-001  1.086294E+002 -3.162281E+001  1.170182E+002 -3.162323E+001  1.170348E+002 -2.504050E-001 -5.499780E+001
1080.0000     -6.520246E-001  1.059462E+002 -3.150176E+001  1.151252E+002 -3.149377E+001  1.151451E+002 -2.487976E-001 -5.617437E+001
1085.0000     -6.506413E-001  1.032405E+002 -3.138521E+001  1.132502E+002 -3.138538E+001  1.132681E+002 -2.511427E-001 -5.730611E+001
1090.0000     -6.530163E-001  1.005493E+002 -3.127537E+001  1.113830E+002 -3.128153E+001  1.113698E+002 -2.480903E-001 -5.842943E+001
1095.0000     -6.530751E-001  9.786378E+001 -3.117535E+001  1.094773E+002 -3.118023E+001  1.095054E+002 -2.505671E-001 -5.955987E+001
1100.0000     -6.510319E-001  9.518305E+001 -3.108236E+001  1.075929E+002 -3.108276E+001  1.076148E+002 -2.491869E-001 -6.067627E+001
1105.0000     -6.515253E-001  9.249600E+001 -3.099283E+001  1.057432E+002 -3.099770E+001  1.057565E+002 -2.492149E-001 -6.178548E+001
1110.0000     -6.513234E-001  8.982017E+001 -3.090442E+001  1.038510E+002 -3.090819E+001  1.038534E+002 -2.479714E-001 -6.290053E+001
1115.0000     -6.501778E-001  8.715121E+001 -3.082402E+001  1.019963E+002 -3.082851E+001  1.020249E+002 -2.473884E-001 -6.398203E+001
1120.0000     -6.513517E-001  8.448354E+001 -3.075090E+001  1.001568E+002 -3.075622E+001  1.001581E+002 -2.462813E-001 -6.506866E+001
1125.0000     -6.506938E-001  8.181284E+001 -3.068762E+001  9.827841E+001 -3.068642E+001  9.827688E+001 -2.482943E-001 -6.616183E+001
1130.0000     -6.504880E-001  7.912679E+001 -3.062226E+001  9.643074E+001 -3.062097E+001  9.641889E+001 -2.478874E-001 -6.723006E+001
1135.0000     -6.484690E-001  7.645879E+001 -3.056039E+001  9.457185E+001 -3.055911E+001  9.457999E+001 -2.469580E-001 -6.828494E+001
1140.0000     -6.488572E-001  7.377036E+001 -3.050171E+001  9.271813E+001 -3.049969E+001  9.273003E+001 -2.483256E-001 -6.933964E+001
1145.0000     -6.498366E-001  7.109691E+001 -3.044812E+001  9.085099E+001 -3.044975E+001  9.086539E+001 -2.479586E-001 -7.040377E+001
1150.0000     -6.490449E-001  6.841450E+001 -3.039821E+001  8.902679E+001 -3.039310E+001  8.901031E+001 -2.494605E-001 -7.144023E+001
1155.0000     -6.486156E-001  6.574358E+001 -3.034642E+001  8.713229E+001 -3.034907E+001  8.716871E+001 -2.482567E-001 -7.249062E+001
1160.0000     -6.475221E-001  6.305523E+001 -3.030095E+001  8.532901E+001 -3.030052E+001  8.532893E+001 -2.479268E-001 -7.351393E+001
1165.0000     -6.472980E-001  6.037713E+001 -3.025798E+001  8.345456E+001 -3.026058E+001  8.348413E+001 -2.490357E-001 -7.453337E+001
1170.0000     -6.487803E-001  5.769782E+001 -3.022165E+001  8.159715E+001 -3.021825E+001  8.166070E+001 -2.505326E-001 -7.555901E+001
1175.0000     -6.449509E-001  5.501859E+001 -3.017776E+001  7.981000E+001 -3.018579E+001  7.977814E+001 -2.482465E-001 -7.658103E+001
1180.0000     -6.464087E-001  5.234277E+001 -3.014856E+001  7.799291E+001 -3.015402E+001  7.794506E+001 -2.506303E-001 -7.757917E+001
1185.0000     -6.453609E-001  4.965900E+001 -3.011782E+001  7.611980E+001 -3.011619E+001  7.610906E+001 -2.491905E-001 -7.858672E+001
1190.0000     -6.431118E-001  4.696557E+001 -3.008737E+001  7.427597E+001 -3.009019E+001  7.427315E+001 -2.493709E-001 -7.959020E+001
1195.0000     -6.444957E-001  4.428131E+001 -3.006304E+001  7.248096E+001 -3.006459E+001  7.245840E+001 -2.510897E-001 -8.057423E+001
1200.0000     -6.446260E-001  4.159804E+001 -3.003942E+001  7.062798E+001 -3.004394E+001  7.062156E+001 -2.502801E-001 -8.156292E+001
1205.0000     -6.426737E-001  3.890660E+001 -3.001714E+001  6.878334E+001 -3.001907E+001  6.879404E+001 -2.502286E-001 -8.255807E+001
1210.0000     -6.436129E-001  3.621636E+001 -2.999576E+001  6.693965E+001 -2.999795E+001  6.698196E+001 -2.491543E-001 -8.352316E+001
1215.0000     -6.438730E-001  3.352206E+001 -2.998009E+001  6.513895E+001 -2.998171E+001  6.514571E+001 -2.518100E-001 -8.448920E+001
1220.0000     -6.437493E-001  3.081983E+001 -2.996135E+001  6.329684E+001 -2.996704E+001  6.329165E+001 -2.508188E-001 -8.545649E+001
1225.0000     -6.425416E-001  2.813404E+001 -2.995064E+001  6.143477E+001 -2.995365E+001  6.147078E+001 -2.532739E-001 -8.642474E+001
1230.0000     -6.411718E-001  2.543271E+001 -2.993888E+001  5.960159E+001 -2.994284E+001  5.965700E+001 -2.537941E-001 -8.736773E+001
1235.0000     -6.431484E-001  2.273033E+001 -2.992842E+001  5.778457E+001 -2.993442E+001  5.779846E+001 -2.539282E-001 -8.834047E+001
1240.0000     -6.414488E-001  2.005654E+001 -2.992704E+001  5.597266E+001 -2.992528E+001  5.600792E+001 -2.550970E-001 -8.929087E+001
1245.0000     -6.431680E-001  1.734622E+001 -2.991988E+001  5.415372E+001 -2.992177E+001  5.417974E+001 -2.559165E-001 -9.024107E+001
1250.0000     -6.426095E-001  1.464978E+001 -2.991523E+001  5.232983E+001 -2.991055E+001  5.234457E+001 -2.550417E-001 -9.118639E+001
1255.0000     -6.409470E-001  1.197034E+001 -2.991072E+001  5.053991E+001 -2.991238E+001  5.051583E+001 -2.558672E-001 -9.213769E+001
1260.0000     -6.411574E-001  9.274593E+000 -2.990924E+001  4.871852E+001 -2.991361E+001  4.871532E+001 -2.577206E-001 -9.305587E+001
1265.0000     -6.420342E-001  6.581464E+000 -2.991618E+001  4.689631E+001 -2.991463E+001  4.688185E+001 -2.577560E-001 -9.399550E+001
1270.0000     -6.413803E-001  3.909349E+000 -2.991667E+001  4.510085E+001 -2.992288E+001  4.509237E+001 -2.583747E-001 -9.491650E+001
1275.0000     -6.430417E-001  1.212939E+000 -2.992526E+001  4.328392E+001 -2.992118E+001  4.329554E+001 -2.579252E-001 -9.583701E+001
1280.0000     -6.414251E-001 -1.467956E+000 -2.992410E+001  4.147207E+001 -2.992857E+001  4.149765E+001 -2.565862E-001 -9.674812E+001
1285.0000     -6.425060E-001 -4.143805E+000 -2.993384E+001  3.966662E+001 -2.994132E+001  3.972595E+001 -2.598042E-001 -9.767136E+001
1290.0000     -6.441256E-001 -6.822547E+000 -2.994403E+001  3.790295E+001 -2.994959E+001  3.787634E+001 -2.592028E-001 -9.858404E+001
1295.0000     -6.439694E-001 -9.492685E+000 -2.995832E+001  3.609034E+001 -2.996006E+001  3.611595E+001 -2.613471E-001 -9.948241E+001
1300.0000     -6.418617E-001 -1.215689E+001 -2.996612E+001  3.429712E+001 -2.996686E+001  3.431967E+001 -2.603689E-001 -1.003860E+002
1305.0000     -6.417993E-001 -1.482990E+001 -2.997943E+001  3.255075E+001 -2.998502E+001  3.253319E+001 -2.609904E-001 -1.012819E+002
1310.0000     -6.438956E-001 -1.748576E+001 -2.999696E+001  3.074013E+001 -2.999967E+001  3.077573E+001 -2.644148E-001 -1.021693E+002
1315.0000     -6.441505E-001 -2.014536E+001 -3.001612E+001  2.897136E+001 -3.001610E+001  2.893880E+001 -2.622395E-001 -1.030957E+002
1320.0000     -6.444107E-001 -2.278448E+001 -3.003550E+001  2.719380E+001 -3.003453E+001  2.718717E+001 -2.651715E-001 -1.039723E+002
1325.0000     -6.454841E-001 -2.542662E+001 -3.005358E+001  2.539912E+001 -3.004931E+001  2.541422E+001 -2.650006E-001 -1.048787E+002
1330.0000     -6.461396E-001 -2.806964E+001 -3.006994E+001  2.364005E+001 -3.007572E+001  2.365261E+001 -2.672982E-001 -1.057506E+002
1335.0000     -6.471767E-001 -3.068486E+001 -3.009218E+001  2.186493E+001 -3.009460E+001  2.186924E+001 -2.659322E-001 -1.066330E+002
1340.0000     -6.468410E-001 -3.332502E+001 -3.012087E+001  2.013835E+001 -3.011648E+001  2.014274E+001 -2.690093E-001 -1.075187E+002
1345.0000     -6.479921E-001 -3.593023E+001 -3.014274E+001  1.838358E+001 -3.013971E+001  1.839234E+001 -2.670456E-001 -1.083853E+002
1350.0000     -6.495674E-001 -3.854392E+001 -3.016823E+001  1.664173E+001 -3.017327E+001  1.663629E+001 -2.691884E-001 -1.092599E+002
1355.0000     -6.490378E-001 -4.112600E+001 -3.019208E+001  1.488831E+001 -3.019376E+001  1.492964E+001 -2.674392E-001 -1.101366E+002
1360.0000     -6.519047E-001 -4.371457E+001 -3.022440E+001  1.316186E+001 -3.022061E+001  1.319668E+001 -2.693101E-001 -1.109983E+002
1365.0000     -6.523720E-001 -4.630104E+001 -3.024765E+001  1.143891E+001 -3.025260E+001  1.145063E+001 -2.701901E-001 -1.118580E+002
1370.0000     -6.519243E-001 -4.886063E+001 -3.027728E+001  9.730564E+000 -3.028031E+001  9.776657E+000 -2.706093E-001 -1.127113E+002
1375.0000     -6.562937E-001 -5.143214E+001 -3.030761E+001  7.996211E+000 -3.031578E+001  7.975538E+000 -2.722372E-001 -1.135855E+002
1380.0000     -6.588042E-001 -5.397898E+001 -3.033884E+001  6.314613E+000 -3.034319E+001  6.335497E+000 -2.719869E-001 -1.144239E+002
1385.0000     -6.570511E-001 -5.651632E+001 -3.037421E+001  4.605830E+000 -3.036994E+001  4.594187E+000 -2.752972E-001 -1.152805E+002
1390.0000     -6.610935E-001 -5.905676E+001 -3.041144E+001  2.874614E+000 -3.041070E+001  2.898220E+000 -2.745217E-001 -1.161451E+002
1395.0000     -6.643757E-001 -6.156596E+001 -3.044640E+001  1.213761E+000 -3.044067E+001  1.198925E+000 -2.751968E-001 -1.169981E+002
1400.0000     -6.640650E-001 -6.407888E+001 -3.047528E+001 -4.808569E-001 -3.047782E+001 -4.691829E-001 -2.752103E-001 -1.178367E+002
1405.0000     -6.663800E-001 -6.659579E+001 -3.050867E+001 -2.191071E+000 -3.051252E+001 -2.157045E+000 -2.765876E-001 -1.186861E+002
1410.0000     -6.691220E-001 -6.908035E+001 -3.055117E+001 -3.818351E+000 -3.055551E+001 -3.860387E+000 -2.792770E-001 -1.195258E+002
1415.0000     -6.696447E-001 -7.154511E+001 -3.058489E+001 -5.482780E+000 -3.058878E+001 -5.518037E+000 -2.784973E-001 -1.203796E+002
1420.0000     -6.721904E-001 -7.401069E+001 -3.061818E+001 -7.159526E+000 -3.062217E+001 -7.149204E+000 -2.793534E-001 -1.212121E+002
1425.0000     -6.774384E-001 -7.646059E+001 -3.066272E+001 -8.770867E+000 -3.066343E+001 -8.798102E+000 -2.800540E-001 -1.220247E+002
1430.0000     -6.798229E-001 -7.889210E+001 -3.070071E+001 -1.042782E+001 -3.070353E+001 -1.043923E+001 -2.807023E-001 -1.228706E+002
1435.0000     -6.813709E-001 -8.133354E+001 -3.073877E+001 -1.203294E+001 -3.073642E+001 -1.210052E+001 -2.791716E-001 -1.236843E+002
1440.0000     -6.842099E-001 -8.374957E+001 -3.078066E+001 -1.370125E+001 -3.078469E+001 -1.368933E+001 -2.840509E-001 -1.245229E+002
1445.0000     -6.872697E-001 -8.615234E+001 -3.082110E+001 -1.531360E+001 -3.082011E+001 -1.531137E+001 -2.817205E-001 -1.253490E+002
1450.0000     -6.885328E-001 -8.854414E+001 -3.086139E+001 -1.692344E+001 -3.086138E+001 -1.688543E+001 -2.845054E-001 -1.261702E+002
1455.0000     -6.968361E-001 -9.093273E+001 -3.090953E+001 -1.852943E+001 -3.090405E+001 -1.849504E+001 -2.853894E-001 -1.269964E+002
1460.0000     -6.997644E-001 -9.330195E+001 -3.094863E+001 -2.008933E+001 -3.094972E+001 -2.012636E+001 -2.872192E-001 -1.278268E+002
1465.0000     -7.057340E-001 -9.567210E+001 -3.099193E+001 -2.169593E+001 -3.099087E+001 -2.166714E+001 -2.897183E-001 -1.286365E+002
1470.0000     -7.122091E-001 -9.801002E+001 -3.104190E+001 -2.325678E+001 -3.103546E+001 -2.328003E+001 -2.885969E-001 -1.294592E+002
1475.0000     -7.192504E-001 -1.003561E+002 -3.108342E+001 -2.484040E+001 -3.108218E+001 -2.480430E+001 -2.894528E-001 -1.302808E+002
1480.0000     -7.281344E-001 -1.026929E+002 -3.112736E+001 -2.635464E+001 -3.112778E+001 -2.637021E+001 -2.897134E-001 -1.310811E+002
1485.0000     -7.383547E-001 -1.050144E+002 -3.116618E+001 -2.791123E+001 -3.117193E+001 -2.790400E+001 -2.901078E-001 -1.318960E+002
1490.0000     -7.547592E-001 -1.073187E+002 -3.122083E+001 -2.940446E+001 -3.122026E+001 -2.941664E+001 -2.910205E-001 -1.327083E+002
1495.0000     -7.748676E-001 -1.096049E+002 -3.127186E+001 -3.086888E+001 -3.126819E+001 -3.086193E+001 -2.926491E-001 -1.335258E+002
1500.0000     -7.983883E-001 -1.118359E+002 -3.132092E+001 -3.226128E+001 -3.131796E+001 -3.224942E+001 -2.931463E-001 -1.343165E+002
1505.0000     -8.291214E-001 -1.140158E+002 -3.135861E+001 -3.359233E+001 -3.136651E+001 -3.360566E+001 -2.937874E-001 -1.351158E+002
1510.0000     -8.573748E-001 -1.160611E+002 -3.139302E+001 -3.490469E+001 -3.139034E+001 -3.490789E+001 -2.951011E-001 -1.359283E+002
1515.0000     -8.732677E-001 -1.180100E+002 -3.139977E+001 -3.617262E+001 -3.140587E+001 -3.618746E+001 -2.951323E-001 -1.367285E+002
1520.0000     -8.692431E-001 -1.199149E+002 -3.139814E+001 -3.758219E+001 -3.140204E+001 -3.756121E+001 -2.980331E-001 -1.375224E+002
1525.0000     -8.479645E-001 -1.218742E+002 -3.139089E+001 -3.906886E+001 -3.139730E+001 -3.907871E+001 -2.982273E-001 -1.383223E+002
1530.0000     -8.191961E-001 -1.239344E+002 -3.139754E+001 -4.067024E+001 -3.139222E+001 -4.066658E+001 -2.967128E-001 -1.391060E+002
1535.0000     -7.976907E-001 -1.260577E+002 -3.141064E+001 -4.229403E+001 -3.141100E+001 -4.226169E+001 -2.996074E-001 -1.399085E+002
1540.0000     -7.796295E-001 -1.281996E+002 -3.144186E+001 -4.385953E+001 -3.144153E+001 -4.385352E+001 -3.011560E-001 -1.407043E+002
1545.0000     -7.686353E-001 -1.303770E+002 -3.146883E+001 -4.545157E+001 -3.146664E+001 -4.543648E+001 -3.012405E-001 -1.414837E+002
1550.0000     -7.609648E-001 -1.325332E+002 -3.149584E+001 -4.700465E+001 -3.149854E+001 -4.700601E+001 -3.031311E-001 -1.422743E+002
1555.0000     -7.550800E-001 -1.346584E+002 -3.152415E+001 -4.846694E+001 -3.152728E+001 -4.852871E+001 -3.041557E-001 -1.430705E+002
1560.0000     -7.525957E-001 -1.367839E+002 -3.155854E+001 -5.001525E+001 -3.155469E+001 -4.997391E+001 -3.028232E-001 -1.438749E+002
1565.0000     -7.510660E-001 -1.388904E+002 -3.159005E+001 -5.149860E+001 -3.158657E+001 -5.149290E+001 -3.068508E-001 -1.446471E+002
1570.0000     -7.495064E-001 -1.409847E+002 -3.161252E+001 -5.296301E+001 -3.161544E+001 -5.295308E+001 -3.064652E-001 -1.454359E+002
1575.0000     -7.491038E-001 -1.430643E+002 -3.164252E+001 -5.443140E+001 -3.164039E+001 -5.439458E+001 -3.061665E-001 -1.462092E+002
1580.0000     -7.493911E-001 -1.451270E+002 -3.166284E+001 -5.586213E+001 -3.167436E+001 -5.587504E+001 -3.072903E-001 -1.469979E+002
1585.0000     -7.481999E-001 -1.471614E+002 -3.169090E+001 -5.731152E+001 -3.169869E+001 -5.727095E+001 -3.090720E-001 -1.477699E+002
1590.0000     -7.497923E-001 -1.491899E+002 -3.171625E+001 -5.869024E+001 -3.171213E+001 -5.873771E+001 -3.088160E-001 -1.485519E+002
1595.0000     -7.515217E-001 -1.512066E+002 -3.173992E+001 -6.013852E+001 -3.173450E+001 -6.011465E+001 -3.106845E-001 -1.493218E+002
1600.0000     -7.531639E-001 -1.532051E+002 -3.176215E+001 -6.150474E+001 -3.175648E+001 -6.152070E+001 -3.131241E-001 -1.501090E+002
1605.0000     -7.544336E-001 -1.551946E+002 -3.177835E+001 -6.294468E+001 -3.177870E+001 -6.293884E+001 -3.139055E-001 -1.508881E+002
1610.0000     -7.556536E-001 -1.571706E+002 -3.179527E+001 -6.432755E+001 -3.179347E+001 -6.429492E+001 -3.132590E-001 -1.516614E+002
1615.0000     -7.612672E-001 -1.591343E+002 -3.181366E+001 -6.575653E+001 -3.181098E+001 -6.570303E+001 -3.141790E-001 -1.524393E+002
1620.0000     -7.616987E-001 -1.610759E+002 -3.182233E+001 -6.710801E+001 -3.182811E+001 -6.709212E+001 -3.178991E-001 -1.532123E+002
1625.0000     -7.644067E-001 -1.630256E+002 -3.182780E+001 -6.847535E+001 -3.183310E+001 -6.849235E+001 -3.157228E-001 -1.539730E+002
1630.0000     -7.652409E-001 -1.649575E+002 -3.184057E+001 -6.987823E+001 -3.184717E+001 -6.989386E+001 -3.166506E-001 -1.547650E+002
1635.0000     -7.688084E-001 -1.668805E+002 -3.185008E+001 -7.121353E+001 -3.185688E+001 -7.121402E+001 -3.188137E-001 -1.555290E+002
1640.0000     -7.708756E-001 -1.687778E+002 -3.185038E+001 -7.257127E+001 -3.185791E+001 -7.258052E+001 -3.190247E-001 -1.562986E+002
1645.0000     -7.714971E-001 -1.706839E+002 -3.185393E+001 -7.394875E+001 -3.186484E+001 -7.394473E+001 -3.186270E-001 -1.570623E+002
1650.0000     -7.762165E-001 -1.725705E+002 -3.186257E+001 -7.525587E+001 -3.186054E+001 -7.526954E+001 -3.205613E-001 -1.578329E+002
1655.0000     -7.777242E-001 -1.744423E+002 -3.185620E+001 -7.661772E+001 -3.185548E+001 -7.665573E+001 -3.209186E-001 -1.586075E+002
1660.0000     -7.789104E-001 -1.763088E+002 -3.184873E+001 -7.795702E+001 -3.185436E+001 -7.796616E+001 -3.222517E-001 -1.593625E+002
1665.0000     -7.809716E-001 -1.781644E+002 -3.185100E+001 -7.929299E+001 -3.184693E+001 -7.929475E+001 -3.229865E-001 -1.601244E+002
1670.0000     -7.820145E-001  1.799959E+002 -3.183854E+001 -8.060377E+001 -3.184032E+001 -8.060559E+001 -3.258999E-001 -1.608941E+002
1675.0000     -7.859906E-001  1.781519E+002 -3.183162E+001 -8.198054E+001 -3.182988E+001 -8.195610E+001 -3.257856E-001 -1.616791E+002
1680.0000     -7.869926E-001  1.763286E+002 -3.181468E+001 -8.328236E+001 -3.181618E+001 -8.325584E+001 -3.273086E-001 -1.624396E+002
1685.0000     -7.907106E-001  1.745132E+002 -3.179823E+001 -8.460099E+001 -3.179275E+001 -8.458735E+001 -3.267733E-001 -1.632083E+002
1690.0000     -7.935375E-001  1.727154E+002 -3.178031E+001 -8.589075E+001 -3.178444E+001 -8.590354E+001 -3.316066E-001 -1.639682E+002
1695.0000     -7.943484E-001  1.709050E+002 -3.175007E+001 -8.723922E+001 -3.175159E+001 -8.725795E+001 -3.303478E-001 -1.647337E+002
1700.0000     -7.980109E-001  1.691195E+002 -3.172999E+001 -8.846270E+001 -3.172285E+001 -8.853026E+001 -3.312111E-001 -1.654900E+002
1705.0000     -8.013628E-001  1.673486E+002 -3.170374E+001 -8.981704E+001 -3.170277E+001 -8.983275E+001 -3.327694E-001 -1.662699E+002
1710.0000     -8.029299E-001  1.655605E+002 -3.166277E+001 -9.111285E+001 -3.166957E+001 -9.108168E+001 -3.345754E-001 -1.670325E+002
1715.0000     -8.036004E-001  1.638049E+002 -3.163021E+001 -9.240398E+001 -3.162996E+001 -9.243379E+001 -3.332181E-001 -1.677993E+002
1720.0000     -8.043932E-001  1.620224E+002 -3.158521E+001 -9.375534E+001 -3.158615E+001 -9.373405E+001 -3.328300E-001 -1.685731E+002
1725.0000     -8.077666E-001  1.602866E+002 -3.153902E+001 -9.501963E+001 -3.153836E+001 -9.497470E+001 -3.357812E-001 -1.693283E+002
1730.0000     -8.102896E-001  1.585406E+002 -3.149652E+001 -9.629330E+001 -3.148766E+001 -9.633981E+001 -3.371768E-001 -1.700899E+002
1735.0000     -8.130286E-001  1.568234E+002 -3.143412E+001 -9.756918E+001 -3.143937E+001 -9.763711E+001 -3.370776E-001 -1.708807E+002
1740.0000     -8.145123E-001  1.550808E+002 -3.137534E+001 -9.891498E+001 -3.137974E+001 -9.890056E+001 -3.384622E-001 -1.716275E+002
1745.0000     -8.149933E-001  1.533846E+002 -3.131061E+001 -1.001404E+002 -3.132004E+001 -1.001638E+002 -3.401995E-001 -1.724073E+002
1750.0000     -8.187659E-001  1.516475E+002 -3.125003E+001 -1.015130E+002 -3.125055E+001 -1.014838E+002 -3.418770E-001 -1.731806E+002
1755.0000     -8.206640E-001  1.499460E+002 -3.117331E+001 -1.027741E+002 -3.117426E+001 -1.027921E+002 -3.426478E-001 -1.739478E+002
1760.0000     -8.220519E-001  1.482486E+002 -3.109232E+001 -1.040523E+002 -3.109575E+001 -1.040958E+002 -3.453949E-001 -1.747388E+002
1765.0000     -8.237327E-001  1.465514E+002 -3.100803E+001 -1.053824E+002 -3.101402E+001 -1.053777E+002 -3.470738E-001 -1.755200E+002
1770.0000     -8.258488E-001  1.448614E+002 -3.092250E+001 -1.066285E+002 -3.092816E+001 -1.066574E+002 -3.488658E-001 -1.762791E+002
1775.0000     -8.293672E-001  1.431749E+002 -3.082622E+001 -1.079642E+002 -3.082882E+001 -1.079377E+002 -3.499575E-001 -1.770725E+002
1780.0000     -8.309726E-001  1.414987E+002 -3.072556E+001 -1.092296E+002 -3.072381E+001 -1.092432E+002 -3.507171E-001 -1.778727E+002
1785.0000     -8.341579E-001  1.398316E+002 -3.061339E+001 -1.105449E+002 -3.061332E+001 -1.105587E+002 -3.514738E-001 -1.786643E+002
1790.0000     -8.351914E-001  1.381600E+002 -3.049604E+001 -1.118620E+002 -3.049558E+001 -1.118541E+002 -3.548473E-001 -1.794501E+002
1795.0000     -8.368624E-001  1.364962E+002 -3.037387E+001 -1.131831E+002 -3.036832E+001 -1.132068E+002 -3.550970E-001  1.797524E+002
1800.0000     -8.373960E-001  1.348402E+002 -3.024113E+001 -1.145127E+002 -3.023798E+001 -1.144669E+002 -3.575040E-001  1.789669E+002
1805.0000     -8.403409E-001  1.331956E+002 -3.009648E+001 -1.158153E+002 -3.009477E+001 -1.157804E+002 -3.596107E-001  1.781527E+002
1810.0000     -8.439721E-001  1.315473E+002 -2.994364E+001 -1.171386E+002 -2.994190E+001 -1.171677E+002 -3.620338E-001  1.773395E+002
1815.0000     -8.460042E-001  1.298967E+002 -2.978240E+001 -1.184867E+002 -2.978570E+001 -1.184870E+002 -3.656814E-001  1.765274E+002
1820.0000     -8.479782E-001  1.282656E+002 -2.960705E+001 -1.198495E+002 -2.961394E+001 -1.198420E+002 -3.670311E-001  1.757019E+002
1825.0000     -8.502808E-001  1.266259E+002 -2.942768E+001 -1.212063E+002 -2.942616E+001 -1.212185E+002 -3.711078E-001  1.748506E+002
1830.0000     -8.522707E-001  1.250022E+002 -2.922954E+001 -1.225455E+002 -2.923008E+001 -1.225686E+002 -3.745247E-001  1.740284E+002
1835.0000     -8.543476E-001  1.233754E+002 -2.902509E+001 -1.239372E+002 -2.902462E+001 -1.239404E+002 -3.809318E-001  1.731658E+002
1840.0000     -8.573083E-001  1.217492E+002 -2.880000E+001 -1.253429E+002 -2.879463E+001 -1.253807E+002 -3.846323E-001  1.722825E+002
1845.0000     -8.584234E-001  1.201181E+002 -2.855640E+001 -1.267739E+002 -2.856105E+001 -1.267975E+002 -3.899868E-001  1.714083E+002
1850.0000     -8.611400E-001  1.184980E+002 -2.830484E+001 -1.282332E+002 -2.830627E+001 -1.282697E+002 -3.953252E-001  1.705100E+002
1855.0000     -8.650824E-001  1.168816E+002 -2.803449E+001 -1.297006E+002 -2.803265E+001 -1.297183E+002 -4.008656E-001  1.696108E+002
1860.0000     -8.665684E-001  1.152500E+002 -2.774040E+001 -1.312463E+002 -2.774250E+001 -1.312283E+002 -4.071753E-001  1.686664E+002
1865.0000     -8.713440E-001  1.136446E+002 -2.743136E+001 -1.327542E+002 -2.742997E+001 -1.327819E+002 -4.155170E-001  1.677047E+002
1870.0000     -8.736213E-001  1.120274E+002 -2.709300E+001 -1.343575E+002 -2.709278E+001 -1.343732E+002 -4.231123E-001  1.667235E+002
1875.0000     -8.774412E-001  1.104100E+002 -2.672924E+001 -1.359788E+002 -2.672963E+001 -1.359917E+002 -4.340614E-001  1.657053E+002
1880.0000     -8.814350E-001  1.087900E+002 -2.633473E+001 -1.377182E+002 -2.633818E+001 -1.377093E+002 -4.480348E-001  1.646416E+002
1885.0000     -8.852060E-001  1.071697E+002 -2.591500E+001 -1.394649E+002 -2.591063E+001 -1.394628E+002 -4.636928E-001  1.635455E+002
1890.0000     -8.916383E-001  1.055449E+002 -2.545239E+001 -1.413270E+002 -2.544943E+001 -1.413212E+002 -4.819504E-001  1.623791E+002
1895.0000     -8.972926E-001  1.039237E+002 -2.494733E+001 -1.433003E+002 -2.495019E+001 -1.433184E+002 -5.056954E-001  1.611282E+002
1900.0000     -9.052927E-001  1.022740E+002 -2.440427E+001 -1.454305E+002 -2.440281E+001 -1.454213E+002 -5.364600E-001  1.598195E+002
1905.0000     -9.143252E-001  1.006333E+002 -2.379816E+001 -1.476925E+002 -2.380178E+001 -1.476976E+002 -5.757686E-001  1.583820E+002
1910.0000     -9.223992E-001  9.896143E+001 -2.312923E+001 -1.502072E+002 -2.313428E+001 -1.502154E+002 -6.242124E-001  1.568148E+002
1915.0000     -9.374276E-001  9.729945E+001 -2.239420E+001 -1.529839E+002 -2.239540E+001 -1.530045E+002 -6.863968E-001  1.550772E+002
1920.0000     -9.555204E-001  9.559280E+001 -2.157254E+001 -1.561703E+002 -2.157372E+001 -1.561787E+002 -7.777411E-001  1.530961E+002
1925.0000     -9.792340E-001  9.386265E+001 -2.065191E+001 -1.598664E+002 -2.065371E+001 -1.598713E+002 -9.045974E-001  1.508293E+002
1930.0000     -1.013744E+000  9.212579E+001 -1.961110E+001 -1.643096E+002 -1.961458E+001 -1.642964E+002 -1.094800E+000  1.481398E+002
1935.0000     -1.063854E+000  9.036011E+001 -1.844030E+001 -1.698498E+002 -1.844259E+001 -1.698591E+002 -1.392107E+000  1.448744E+002
1940.0000     -1.140701E+000  8.857413E+001 -1.712906E+001 -1.770270E+002 -1.712715E+001 -1.770277E+002 -1.886126E+000  1.409136E+002
1945.0000     -1.257331E+000  8.688325E+001 -1.569528E+001  1.733062E+002 -1.569741E+001  1.733092E+002 -2.773869E+000  1.362814E+002
1950.0000     -1.430129E+000  8.554639E+001 -1.426905E+001  1.599563E+002 -1.427093E+001  1.599619E+002 -4.466224E+000  1.322072E+002
1955.0000     -1.620853E+000  8.503149E+001 -1.318490E+001  1.419182E+002 -1.318726E+001  1.419074E+002 -7.584102E+000  1.361417E+002
1960.0000     -1.683545E+000  8.541019E+001 -1.295948E+001  1.204596E+002 -1.295875E+001  1.204538E+002 -9.562908E+000  1.671461E+002
1965.0000     -1.545800E+000  8.548470E+001 -1.379438E+001  9.991373E+001 -1.379544E+001  9.991119E+001 -6.322594E+000 -1.722407E+002
1970.0000     -1.352236E+000  8.456094E+001 -1.529374E+001  8.368552E+001 -1.529357E+001  8.369183E+001 -3.763967E+000 -1.728314E+002
1975.0000     -1.203766E+000  8.301704E+001 -1.697527E+001  7.189168E+001 -1.697521E+001  7.189369E+001 -2.428899E+000 -1.773500E+002
1980.0000     -1.107517E+000  8.126707E+001 -1.859306E+001  6.329744E+001 -1.859447E+001  6.331429E+001 -1.712936E+000  1.782873E+002
1985.0000     -1.044408E+000  7.948419E+001 -2.007923E+001  5.684069E+001 -2.007991E+001  5.684826E+001 -1.301083E+000  1.746343E+002
1990.0000     -1.004662E+000  7.773666E+001 -2.142682E+001  5.178699E+001 -2.142707E+001  5.179445E+001 -1.049527E+000  1.716285E+002
1995.0000     -9.800018E-001  7.602045E+001 -2.264340E+001  4.768115E+001 -2.264360E+001  4.766561E+001 -8.825261E-001  1.691405E+002
2000.0000     -9.593533E-001  7.433935E+001 -2.375162E+001  4.421413E+001 -2.375032E+001  4.420747E+001 -7.688854E-001  1.670052E+002
2005.0000     -9.444311E-001  7.267886E+001 -2.476077E+001  4.119786E+001 -2.476661E+001  4.121005E+001 -6.878413E-001  1.651495E+002
2010.0000     -9.355404E-001  7.105264E+001 -2.569511E+001  3.855080E+001 -2.569408E+001  3.856623E+001 -6.262357E-001  1.635006E+002
2015.0000     -9.288989E-001  6.944667E+001 -2.655733E+001  3.615578E+001 -2.656238E+001  3.617711E+001 -5.820113E-001  1.620072E+002
2020.0000     -9.238291E-001  6.785424E+001 -2.736224E+001  3.397656E+001 -2.736208E+001  3.397600E+001 -5.441574E-001  1.606428E+002
2025.0000     -9.214868E-001  6.626080E+001 -2.811682E+001  3.198179E+001 -2.811295E+001  3.195455E+001 -5.182853E-001  1.593951E+002
2030.0000     -9.164993E-001  6.469477E+001 -2.882002E+001  3.004253E+001 -2.882429E+001  3.005910E+001 -4.970728E-001  1.582060E+002
2035.0000     -9.145262E-001  6.312971E+001 -2.948355E+001  2.825965E+001 -2.949051E+001  2.823621E+001 -4.785345E-001  1.570995E+002
2040.0000     -9.137617E-001  6.157275E+001 -3.011562E+001  2.654915E+001 -3.011718E+001  2.657336E+001 -4.651356E-001  1.560383E+002
2045.0000     -9.112714E-001  6.001847E+001 -3.071631E+001  2.489770E+001 -3.071543E+001  2.488024E+001 -4.519523E-001  1.550207E+002
2050.0000     -9.132291E-001  5.847844E+001 -3.128741E+001  2.331983E+001 -3.129160E+001  2.330831E+001 -4.407788E-001  1.540465E+002
2055.0000     -9.134337E-001  5.693700E+001 -3.182682E+001  2.176616E+001 -3.183749E+001  2.182955E+001 -4.341616E-001  1.531097E+002
2060.0000     -9.112381E-001  5.539045E+001 -3.235232E+001  2.031116E+001 -3.235678E+001  2.028234E+001 -4.277174E-001  1.521877E+002
2065.0000     -9.090093E-001  5.385931E+001 -3.284438E+001  1.886843E+001 -3.284473E+001  1.885218E+001 -4.191445E-001  1.513036E+002
2070.0000     -9.101825E-001  5.232570E+001 -3.332201E+001  1.741853E+001 -3.331905E+001  1.739502E+001 -4.142557E-001  1.504289E+002
2075.0000     -9.097000E-001  5.079573E+001 -3.378006E+001  1.599759E+001 -3.377714E+001  1.601542E+001 -4.089465E-001  1.495981E+002
2080.0000     -9.094754E-001  4.927485E+001 -3.421590E+001  1.464955E+001 -3.421696E+001  1.461884E+001 -4.056007E-001  1.487616E+002
2085.0000     -9.085357E-001  4.775352E+001 -3.463660E+001  1.327001E+001 -3.464046E+001  1.327058E+001 -4.015043E-001  1.479519E+002
2090.0000     -9.096081E-001  4.623026E+001 -3.504757E+001  1.192183E+001 -3.504957E+001  1.197308E+001 -3.988187E-001  1.471384E+002
2095.0000     -9.084215E-001  4.472225E+001 -3.544064E+001  1.061168E+001 -3.543980E+001  1.059537E+001 -3.946455E-001  1.463560E+002
2100.0000     -9.073281E-001  4.322529E+001 -3.581346E+001  9.378083E+000 -3.581850E+001  9.314671E+000 -3.914045E-001  1.455649E+002
2105.0000     -9.093530E-001  4.170992E+001 -3.617887E+001  8.044064E+000 -3.618587E+001  8.039926E+000 -3.894372E-001  1.447883E+002
2110.0000     -9.082032E-001  4.019960E+001 -3.652280E+001  6.764047E+000 -3.654024E+001  6.801792E+000 -3.870320E-001  1.440376E+002
2115.0000     -9.088736E-001  3.868882E+001 -3.687131E+001  5.498519E+000 -3.686268E+001  5.458723E+000 -3.836723E-001  1.432748E+002
2120.0000     -9.108769E-001  3.718506E+001 -3.720420E+001  4.274030E+000 -3.718919E+001  4.188336E+000 -3.842737E-001  1.425396E+002
2125.0000     -9.108568E-001  3.567479E+001 -3.750669E+001  3.042364E+000 -3.750034E+001  3.016879E+000 -3.800609E-001  1.417986E+002
2130.0000     -9.125925E-001  3.415897E+001 -3.781528E+001  1.713421E+000 -3.781242E+001  1.731456E+000 -3.805782E-001  1.410592E+002
2135.0000     -9.137716E-001  3.266146E+001 -3.811880E+001  4.953679E-001 -3.810711E+001  5.620601E-001 -3.794127E-001  1.403417E+002
2140.0000     -9.129816E-001  3.113318E+001 -3.838356E+001 -7.852834E-001 -3.838770E+001 -7.587095E-001 -3.774264E-001  1.396158E+002
2145.0000     -9.145586E-001  2.963000E+001 -3.866264E+001 -1.968644E+000 -3.866812E+001 -1.992621E+000 -3.762541E-001  1.388964E+002
2150.0000     -9.138204E-001  2.811887E+001 -3.891814E+001 -3.114407E+000 -3.894577E+001 -3.192051E+000 -3.750553E-001  1.381883E+002
2155.0000     -9.130948E-001  2.661945E+001 -3.916956E+001 -4.413425E+000 -3.917568E+001 -4.480259E+000 -3.743934E-001  1.374689E+002
2160.0000     -9.126257E-001  2.510981E+001 -3.941146E+001 -5.592595E+000 -3.941002E+001 -5.672620E+000 -3.740226E-001  1.367765E+002
2165.0000     -9.129230E-001  2.360235E+001 -3.963964E+001 -6.827245E+000 -3.964972E+001 -6.852841E+000 -3.732489E-001  1.360725E+002
2170.0000     -9.101921E-001  2.210133E+001 -3.985324E+001 -8.160491E+000 -3.986323E+001 -8.101946E+000 -3.725890E-001  1.353750E+002
2175.0000     -9.127185E-001  2.059396E+001 -4.007341E+001 -9.339169E+000 -4.006945E+001 -9.302279E+000 -3.701133E-001  1.346790E+002
2180.0000     -9.128724E-001  1.910774E+001 -4.027504E+001 -1.051577E+001 -4.026889E+001 -1.051716E+001 -3.699448E-001  1.339974E+002
2185.0000     -9.134540E-001  1.760279E+001 -4.047405E+001 -1.176011E+001 -4.044931E+001 -1.165991E+001 -3.698235E-001  1.332964E+002
2190.0000     -9.127139E-001  1.610123E+001 -4.064915E+001 -1.298101E+001 -4.063690E+001 -1.303257E+001 -3.687761E-001  1.326030E+002
2195.0000     -9.148698E-001  1.459144E+001 -4.080653E+001 -1.411675E+001 -4.080731E+001 -1.414503E+001 -3.692781E-001  1.319201E+002
2200.0000     -9.143506E-001  1.308621E+001 -4.096164E+001 -1.542203E+001 -4.096849E+001 -1.543688E+001 -3.659813E-001  1.312386E+002
2205.0000     -9.161006E-001  1.158591E+001 -4.112497E+001 -1.662211E+001 -4.110941E+001 -1.664598E+001 -3.676226E-001  1.305644E+002
2210.0000     -9.166875E-001  1.008534E+001 -4.124407E+001 -1.779615E+001 -4.126152E+001 -1.783682E+001 -3.665133E-001  1.298953E+002
2215.0000     -9.162639E-001  8.576604E+000 -4.135375E+001 -1.904648E+001 -4.138460E+001 -1.915501E+001 -3.666958E-001  1.292048E+002
2220.0000     -9.169371E-001  7.062182E+000 -4.147802E+001 -2.037513E+001 -4.147583E+001 -2.047412E+001 -3.659712E-001  1.285359E+002
2225.0000     -9.157171E-001  5.553697E+000 -4.157666E+001 -2.167719E+001 -4.157495E+001 -2.157882E+001 -3.648364E-001  1.278572E+002
2250.0000     -9.146520E-001 -1.966493E+000 -4.184892E+001 -2.793126E+001 -4.185171E+001 -2.790190E+001 -3.649603E-001  1.245245E+002
2275.0000     -9.194872E-001 -9.477844E+000 -4.168972E+001 -3.475255E+001 -4.168951E+001 -3.470203E+001 -3.633128E-001  1.211806E+002
2300.0000     -9.182522E-001 -1.704285E+001 -4.090592E+001 -4.223588E+001 -4.091265E+001 -4.222491E+001 -3.681213E-001  1.178477E+002
2325.0000     -9.229339E-001 -2.462541E+001 -3.912748E+001 -5.181690E+001 -3.913346E+001 -5.170228E+001 -3.799976E-001  1.144182E+002
2350.0000     -9.415817E-001 -3.230575E+001 -3.524852E+001 -6.847350E+001 -3.524506E+001 -6.843978E+001 -4.471238E-001  1.106141E+002
2375.0000     -1.102409E+000 -3.939650E+001 -2.884419E+001 -1.384278E+002 -2.884095E+001 -1.384155E+002 -9.744622E-001  1.087989E+002
2400.0000     -9.404378E-001 -4.636325E+001 -3.790063E+001  1.490355E+002 -3.789868E+001  1.491498E+002 -4.551901E-001  1.073899E+002
2425.0000     -9.154705E-001 -5.401600E+001 -4.469949E+001  1.320115E+002 -4.470398E+001  1.321267E+002 -3.806111E-001  1.036663E+002
2450.0000     -9.061439E-001 -6.150960E+001 -4.936135E+001  1.222593E+002 -4.940171E+001  1.227408E+002 -3.624783E-001  1.003337E+002
2475.0000     -9.017164E-001 -6.897230E+001 -5.307992E+001  1.153044E+002 -5.318052E+001  1.156621E+002 -3.544175E-001  9.714062E+001
2500.0000     -8.951780E-001 -7.637424E+001 -5.618728E+001  1.082219E+002 -5.627372E+001  1.085870E+002 -3.500787E-001  9.403391E+001
2525.0000     -8.916828E-001 -8.373225E+001 -5.900579E+001  1.017963E+002 -5.909407E+001  1.020847E+002 -3.443812E-001  9.096388E+001
2550.0000     -8.874693E-001 -9.102446E+001 -6.153149E+001  9.660460E+001 -6.154305E+001  9.531974E+001 -3.451300E-001  8.792751E+001
2575.0000     -8.800568E-001 -9.827220E+001 -6.405711E+001  9.070323E+001 -6.403488E+001  9.073540E+001 -3.413607E-001  8.489534E+001
2600.0000     -8.728707E-001 -1.054561E+002 -6.642728E+001  8.474445E+001 -6.642205E+001  8.563163E+001 -3.392959E-001  8.191988E+001
2625.0000     -8.678562E-001 -1.125727E+002 -6.961174E+001  7.764502E+001 -6.909184E+001  7.816053E+001 -3.393440E-001  7.894262E+001
2650.0000     -8.608059E-001 -1.196383E+002 -7.226376E+001  6.937228E+001 -7.173489E+001  7.251814E+001 -3.345430E-001  7.598019E+001
2675.0000     -8.537057E-001 -1.266160E+002 -7.718707E+001  6.608085E+001 -7.545670E+001  6.098745E+001 -3.324134E-001  7.304277E+001
2700.0000     -8.467934E-001 -1.335138E+002 -8.060136E+001  6.319576E+001 -8.222231E+001  5.926151E+001 -3.334368E-001  7.008803E+001
2725.0000     -8.389149E-001 -1.403679E+002 -8.783392E+001  6.179943E+001 -8.896259E+001  2.472630E+001 -3.313779E-001  6.714098E+001
2750.0000     -8.277030E-001 -1.471331E+002 -9.249662E+001 -6.550803E+001 -9.757708E+001 -7.226540E+001 -3.281855E-001  6.424412E+001
2775.0000     -8.207571E-001 -1.537746E+002 -8.708015E+001 -1.128633E+002 -8.661128E+001 -1.508827E+002 -3.283028E-001  6.132196E+001
2800.0000     -8.155112E-001 -1.603980E+002 -7.983851E+001 -1.347993E+002 -7.943369E+001 -1.332270E+002 -3.240782E-001  5.840920E+001
2825.0000     -8.046893E-001 -1.668927E+002 -7.826123E+001 -1.416081E+002 -7.787611E+001 -1.386936E+002 -3.236428E-001  5.553683E+001
2850.0000     -8.008015E-001 -1.733189E+002 -7.623198E+001 -1.501230E+002 -7.670004E+001 -1.479969E+002 -3.244385E-001  5.264719E+001
2875.0000     -7.921602E-001 -1.796920E+002 -7.407495E+001 -1.490678E+002 -7.410120E+001 -1.532869E+002 -3.212650E-001  4.973997E+001
2900.0000     -7.838110E-001  1.740931E+002 -7.281084E+001 -1.522942E+002 -7.284863E+001 -1.541296E+002 -3.172004E-001  4.687734E+001
2925.0000     -7.819946E-001  1.679095E+002 -7.241874E+001 -1.625697E+002 -7.193476E+001 -1.625313E+002 -3.224275E-001  4.401055E+001
2950.0000     -7.758094E-001  1.617944E+002 -7.103330E+001  1.710554E+001 -7.121658E+001  1.400431E+001 -3.182839E-001  4.110270E+001
2975.0000     -7.675042E-001  1.557944E+002 -7.068152E+001  1.342290E+001 -7.101340E+001  1.468008E+001 -3.147323E-001  3.826951E+001
3000.0000     -7.618997E-001  1.498666E+002 -6.999157E+001  7.479281E+000 -7.063074E+001  9.862909E+000 -3.180063E-001  3.540675E+001
3025.0000     -7.606229E-001  1.439927E+002 -6.953283E+001  3.972527E+000 -6.953360E+001  5.154214E+000 -3.156414E-001  3.252050E+001
3050.0000     -7.544773E-001  1.382175E+002 -6.936286E+001  5.225332E-001 -6.924001E+001  1.437991E+000 -3.130731E-001  2.970119E+001
3075.0000     -7.532927E-001  1.325056E+002 -6.886757E+001 -3.984154E+000 -6.876851E+001 -1.569780E+000 -3.182194E-001  2.683659E+001
3100.0000     -7.513800E-001  1.268501E+002 -6.831699E+001 -6.414104E+000 -6.862137E+001 -6.891422E+000 -3.164590E-001  2.396456E+001
3125.0000     -7.485715E-001  1.212509E+002 -6.834826E+001 -1.348135E+001 -6.806227E+001 -9.386200E+000 -3.129185E-001  2.111912E+001
3150.0000     -7.505775E-001  1.157186E+002 -6.766882E+001 -1.585729E+001 -6.811707E+001 -1.485405E+001 -3.162517E-001  1.826869E+001
3175.0000     -7.509993E-001  1.102194E+002 -6.765057E+001 -1.762895E+001 -6.760779E+001 -1.935168E+001 -3.181344E-001  1.538545E+001
3200.0000     -7.551848E-001  1.047862E+002 -6.757790E+001 -2.201585E+001 -6.735526E+001 -2.134575E+001 -3.136221E-001  1.255291E+001
3225.0000     -7.622631E-001  9.938052E+001 -6.698144E+001 -2.628037E+001 -6.739573E+001 -2.605951E+001 -3.170182E-001  9.710676E+000
3250.0000     -7.718753E-001  9.403716E+001 -6.671098E+001 -2.919302E+001 -6.665802E+001 -3.018022E+001 -3.194542E-001  6.827540E+000
3275.0000     -7.877839E-001  8.872087E+001 -6.637956E+001 -3.410765E+001 -6.664588E+001 -3.534409E+001 -3.148430E-001  3.989062E+000
3300.0000     -8.132260E-001  8.347186E+001 -6.574433E+001 -3.632762E+001 -6.607589E+001 -3.830890E+001 -3.206814E-001  1.133558E+000
3325.0000     -8.428500E-001  7.832133E+001 -6.577916E+001 -4.345596E+001 -6.554532E+001 -4.514672E+001 -3.208803E-001 -1.764022E+000
3350.0000     -8.735496E-001  7.330666E+001 -6.527359E+001 -5.090271E+001 -6.522882E+001 -5.322747E+001 -3.202926E-001 -4.608864E+000
3375.0000     -8.834558E-001  6.840989E+001 -6.534822E+001 -5.916375E+001 -6.581557E+001 -5.988168E+001 -3.240450E-001 -7.460746E+000
3400.0000     -8.645929E-001  6.351162E+001 -6.600422E+001 -6.486723E+001 -6.612973E+001 -6.652770E+001 -3.264407E-001 -1.036564E+001
3425.0000     -8.392912E-001  5.843810E+001 -6.691584E+001 -6.923555E+001 -6.680928E+001 -6.959740E+001 -3.257893E-001 -1.323836E+001
3450.0000     -8.162192E-001  5.319532E+001 -6.739213E+001 -7.034693E+001 -6.742701E+001 -7.067681E+001 -3.332145E-001 -1.611227E+001
3475.0000     -8.052343E-001  4.792614E+001 -6.766740E+001 -7.253529E+001 -6.782732E+001 -7.390923E+001 -3.339811E-001 -1.901367E+001
3500.0000     -8.023357E-001  4.259233E+001 -6.847034E+001 -7.456533E+001 -6.815391E+001 -7.503026E+001 -3.336282E-001 -2.191979E+001
3525.0000     -8.073761E-001  3.715787E+001 -6.818358E+001 -7.432488E+001 -6.819389E+001 -7.262669E+001 -3.399479E-001 -2.480757E+001
3550.0000     -8.139669E-001  3.165664E+001 -6.846957E+001 -7.294059E+001 -6.818139E+001 -7.193637E+001 -3.421187E-001 -2.774107E+001
3575.0000     -8.324708E-001  2.604728E+001 -6.814457E+001 -7.278019E+001 -6.804937E+001 -7.113406E+001 -3.442020E-001 -3.064559E+001
3600.0000     -8.566849E-001  2.023416E+001 -6.785664E+001 -6.920851E+001 -6.751579E+001 -6.887627E+001 -3.522455E-001 -3.355996E+001
3625.0000     -8.887605E-001  1.417828E+001 -6.708701E+001 -6.609457E+001 -6.687016E+001 -6.754343E+001 -3.555664E-001 -3.650604E+001
3650.0000     -9.360937E-001  7.803169E+000 -6.503896E+001 -6.703676E+001 -6.507029E+001 -6.493696E+001 -3.584810E-001 -3.945564E+001
3675.0000     -1.007083E+000  8.595634E-001 -6.255011E+001 -6.458661E+001 -6.229457E+001 -6.466644E+001 -3.674974E-001 -4.240530E+001
3700.0000     -1.110506E+000 -6.893200E+000 -5.859254E+001 -7.022324E+001 -5.854854E+001 -7.105114E+001 -3.755286E-001 -4.538479E+001
3725.0000     -1.299428E+000 -1.606086E+001 -5.348199E+001 -8.554897E+001 -5.353064E+001 -8.514585E+001 -3.883043E-001 -4.833153E+001
3750.0000     -1.689598E+000 -2.819297E+001 -4.794529E+001 -1.129407E+002 -4.793427E+001 -1.130690E+002 -4.076937E-001 -5.122119E+001
3775.0000     -2.832658E+000 -4.748859E+001 -4.287638E+001 -1.504325E+002 -4.285684E+001 -1.503046E+002 -4.085096E-001 -5.411977E+001
3800.0000     -9.204942E+000 -9.037699E+001 -3.790537E+001  1.611279E+002 -3.790499E+001  1.611097E+002 -4.031008E-001 -5.705708E+001
3825.0000     -7.241053E+000  4.601263E+001 -3.687122E+001  9.807368E+001 -3.687398E+001  9.808699E+001 -4.048344E-001 -6.002685E+001
3850.0000     -2.649638E+000  6.522680E+000 -3.899860E+001  6.147790E+001 -3.900448E+001  6.147448E+001 -4.063540E-001 -6.306284E+001
3875.0000     -1.934294E+000 -1.377749E+001 -3.997702E+001  4.252749E+001 -3.996762E+001  4.257775E+001 -4.062674E-001 -6.607757E+001
3900.0000     -1.903020E+000 -2.901831E+001 -3.972413E+001  2.917775E+001 -3.973579E+001  2.924983E+001 -4.148838E-001 -6.909280E+001
3925.0000     -2.186097E+000 -4.362262E+001 -3.861658E+001  1.706773E+001 -3.863129E+001  1.707612E+001 -4.198719E-001 -7.216017E+001
3950.0000     -2.871401E+000 -6.038513E+001 -3.684228E+001  3.994407E+000 -3.684325E+001  3.978723E+000 -4.228308E-001 -7.520538E+001
3975.0000     -4.402498E+000 -8.320480E+001 -3.457215E+001 -1.245925E+001 -3.455845E+001 -1.246594E+001 -4.320787E-001 -7.824786E+001
4000.0000     -8.216268E+000 -1.224400E+002 -3.219365E+001 -3.524976E+001 -3.218666E+001 -3.526567E+001 -4.416658E-001 -8.132766E+001
4025.0000     -1.275600E+001  1.313125E+002 -3.064096E+001 -6.506575E+001 -3.063909E+001 -6.508006E+001 -4.486352E-001 -8.439807E+001
4050.0000     -6.098312E+000  5.037507E+001 -3.071528E+001 -9.510700E+001 -3.071278E+001 -9.511008E+001 -4.541956E-001 -8.745525E+001
4075.0000     -3.094955E+000  1.594960E+001 -3.172908E+001 -1.179713E+002 -3.173052E+001 -1.180108E+002 -4.605440E-001 -9.054784E+001
4100.0000     -1.934934E+000 -5.287103E+000 -3.277061E+001 -1.341950E+002 -3.276628E+001 -1.342008E+002 -4.650538E-001 -9.368488E+001
4125.0000     -1.441480E+000 -2.051115E+001 -3.349225E+001 -1.463374E+002 -3.349202E+001 -1.463568E+002 -4.729455E-001 -9.680940E+001
4150.0000     -1.210478E+000 -3.265010E+001 -3.388496E+001 -1.563242E+002 -3.388388E+001 -1.563091E+002 -4.790021E-001 -9.994216E+001
4175.0000     -1.118411E+000 -4.311034E+001 -3.392989E+001 -1.651300E+002 -3.393414E+001 -1.651133E+002 -4.883710E-001 -1.031037E+002
4200.0000     -1.120169E+000 -5.279348E+001 -3.365947E+001 -1.733906E+002 -3.366331E+001 -1.734668E+002 -4.947057E-001 -1.062818E+002
4225.0000     -1.200246E+000 -6.212182E+001 -3.311328E+001  1.781458E+002 -3.311295E+001  1.781300E+002 -5.033538E-001 -1.094556E+002
4250.0000     -1.366065E+000 -7.124049E+001 -3.231279E+001  1.695525E+002 -3.231669E+001  1.695286E+002 -5.150721E-001 -1.126710E+002
4275.0000     -1.555347E+000 -8.100242E+001 -3.114095E+001  1.609780E+002 -3.114169E+001  1.609621E+002 -5.226933E-001 -1.158960E+002
4300.0000     -1.888071E+000 -9.295741E+001 -2.942112E+001  1.507005E+002 -2.942276E+001  1.506575E+002 -5.365985E-001 -1.191322E+002
4325.0000     -2.722098E+000 -1.091802E+002 -2.716293E+001  1.365541E+002 -2.716046E+001  1.365591E+002 -5.569459E-001 -1.224295E+002
4350.0000     -5.193727E+000 -1.345091E+002 -2.450100E+001  1.149705E+002 -2.450302E+001  1.149555E+002 -5.782937E-001 -1.257066E+002
4375.0000     -1.610775E+001  1.677091E+002 -2.249904E+001  8.122128E+001 -2.249916E+001  8.121721E+001 -6.084777E-001 -1.288691E+002
4400.0000     -8.619435E+000 -8.840374E+000 -2.295781E+001  4.342002E+001 -2.296134E+001  4.343181E+001 -6.152076E-001 -1.320358E+002
4425.0000     -3.905302E+000 -4.197166E+001 -2.491738E+001  1.661022E+001 -2.491932E+001  1.659971E+001 -6.082805E-001 -1.354177E+002
4450.0000     -2.511896E+000 -6.066768E+001 -2.666987E+001 -8.501252E-001 -2.667448E+001 -8.532533E-001 -6.140213E-001 -1.389009E+002
4475.0000     -1.955910E+000 -7.327283E+001 -2.778251E+001 -1.373254E+001 -2.778679E+001 -1.376649E+001 -6.375977E-001 -1.425271E+002
4500.0000     -1.681387E+000 -8.297842E+001 -2.818269E+001 -2.495700E+001 -2.818375E+001 -2.496686E+001 -6.719356E-001 -1.463362E+002
4525.0000     -1.509615E+000 -9.115633E+001 -2.779020E+001 -3.666287E+001 -2.779247E+001 -3.665135E+001 -7.521124E-001 -1.504590E+002
4550.0000     -1.406327E+000 -9.855478E+001 -2.632960E+001 -5.202951E+001 -2.632688E+001 -5.204598E+001 -9.729400E-001 -1.552892E+002
4575.0000     -1.408248E+000 -1.054048E+002 -2.352987E+001 -8.208702E+001 -2.352797E+001 -8.211025E+001 -1.814842E+000 -1.601399E+002
4600.0000     -1.370523E+000 -1.104609E+002 -2.412848E+001 -1.464267E+002 -2.412961E+001 -1.464356E+002 -2.352021E+000 -1.509431E+002
4625.0000     -1.159407E+000 -1.167093E+002 -3.126337E+001  1.744559E+002 -3.127007E+001  1.744440E+002 -1.088889E+000 -1.538025E+002
4650.0000     -1.076651E+000 -1.231669E+002 -3.800087E+001  1.620918E+002 -3.801760E+001  1.620243E+002 -7.942689E-001 -1.591059E+002
4675.0000     -1.039509E+000 -1.294337E+002 -4.458791E+001  1.642021E+002 -4.460330E+001  1.643354E+002 -7.041706E-001 -1.635007E+002
4700.0000     -1.027930E+000 -1.356441E+002 -5.058435E+001 -1.643003E+002 -5.061194E+001 -1.644318E+002 -6.823471E-001 -1.674876E+002
4725.0000     -1.023843E+000 -1.418138E+002 -4.909665E+001 -1.185910E+002 -4.909115E+001 -1.185020E+002 -6.693740E-001 -1.713151E+002
4750.0000     -1.038885E+000 -1.479905E+002 -4.497665E+001 -1.062197E+002 -4.497458E+001 -1.063125E+002 -6.709387E-001 -1.749758E+002
4775.0000     -1.071599E+000 -1.542719E+002 -4.156127E+001 -1.081187E+002 -4.157527E+001 -1.082343E+002 -6.942638E-001 -1.786528E+002
4800.0000     -1.117172E+000 -1.606962E+002 -3.843966E+001 -1.164131E+002 -3.843445E+001 -1.163596E+002 -7.256396E-001  1.776310E+002
4825.0000     -1.199244E+000 -1.672331E+002 -3.530876E+001 -1.310338E+002 -3.530909E+001 -1.310467E+002 -8.023822E-001  1.739815E+002
4850.0000     -1.330771E+000 -1.738770E+002 -3.240327E+001 -1.560196E+002 -3.239813E+001 -1.559921E+002 -9.670247E-001  1.706922E+002
4875.0000     -1.445673E+000  1.795143E+002 -3.125817E+001  1.669692E+002 -3.125272E+001  1.669832E+002 -1.079509E+000  1.686506E+002
4900.0000     -1.525022E+000  1.722495E+002 -3.303733E+001  1.331343E+002 -3.303526E+001  1.331064E+002 -9.590793E-001  1.664828E+002
4925.0000     -1.694212E+000  1.637048E+002 -3.591476E+001  1.117997E+002 -3.591912E+001  1.118046E+002 -8.440332E-001  1.631892E+002
4950.0000     -1.999048E+000  1.538778E+002 -3.883171E+001  9.884388E+001 -3.883515E+001  9.875871E+001 -7.795115E-001  1.595862E+002
4975.0000     -2.575155E+000  1.421944E+002 -4.182962E+001  9.157526E+001 -4.182840E+001  9.159345E+001 -7.698143E-001  1.560553E+002
5000.0000     -3.731453E+000  1.270207E+002 -4.568881E+001  8.964838E+001 -4.567652E+001  8.958868E+001 -8.214540E-001  1.525946E+002
5025.0000     -6.418830E+000  1.056849E+002 -5.007939E+001  1.434260E+002 -5.005704E+001  1.433554E+002 -8.257087E-001  1.497706E+002
5050.0000     -1.539858E+001  6.818301E+001 -4.099676E+001  1.551279E+002 -4.100006E+001  1.552214E+002 -7.580341E-001  1.466829E+002
5075.0000     -1.222120E+001 -1.165692E+002 -3.721252E+001  1.299514E+002 -3.721462E+001  1.300271E+002 -7.323169E-001  1.432171E+002
5100.0000     -5.179809E+000 -1.509650E+002 -3.625227E+001  1.054686E+002 -3.625644E+001  1.054416E+002 -7.045280E-001  1.397654E+002
5125.0000     -2.929728E+000 -1.729107E+002 -3.639571E+001  8.701356E+001 -3.639762E+001  8.700507E+001 -6.977872E-001  1.364505E+002
5150.0000     -2.032233E+000  1.712459E+002 -3.676817E+001  7.314379E+001 -3.677309E+001  7.316442E+001 -7.031590E-001  1.330603E+002
5175.0000     -1.616074E+000  1.587522E+002 -3.705445E+001  6.200650E+001 -3.704834E+001  6.195821E+001 -6.906881E-001  1.296699E+002
5200.0000     -1.406903E+000  1.483062E+002 -3.718515E+001  5.217241E+001 -3.718155E+001  5.221112E+001 -6.881292E-001  1.264084E+002
5225.0000     -1.319222E+000  1.389738E+002 -3.714266E+001  4.297212E+001 -3.714235E+001  4.295144E+001 -6.973767E-001  1.230875E+002
5250.0000     -1.281124E+000  1.302227E+002 -3.689518E+001  3.350692E+001 -3.689721E+001  3.352085E+001 -6.880420E-001  1.197155E+002
5275.0000     -1.281703E+000  1.219861E+002 -3.642770E+001  2.340317E+001 -3.643187E+001  2.343574E+001 -6.877188E-001  1.164666E+002
5300.0000     -1.336835E+000  1.139452E+002 -3.575812E+001  1.163615E+001 -3.576196E+001  1.165330E+001 -7.015615E-001  1.131636E+002
5325.0000     -1.437821E+000  1.059729E+002 -3.490874E+001 -3.302787E+000 -3.491137E+001 -3.311884E+000 -7.073490E-001  1.098511E+002
5350.0000     -1.606207E+000  9.838440E+001 -3.415572E+001 -2.319268E+001 -3.415619E+001 -2.314222E+001 -7.193117E-001  1.066458E+002
5375.0000     -1.810709E+000  9.155329E+001 -3.415430E+001 -4.833667E+001 -3.415636E+001 -4.830684E+001 -7.378533E-001  1.035247E+002
5400.0000     -1.924616E+000  8.516821E+001 -3.539344E+001 -7.370926E+001 -3.538858E+001 -7.372991E+001 -7.274626E-001  1.004143E+002
5425.0000     -1.940711E+000  7.878915E+001 -3.730243E+001 -9.634667E+001 -3.728805E+001 -9.628878E+001 -7.083893E-001  9.728131E+001
5450.0000     -1.851279E+000  7.171874E+001 -4.010285E+001 -1.157482E+002 -4.010883E+001 -1.158172E+002 -6.978930E-001  9.408987E+001
5475.0000     -1.802263E+000  6.374868E+001 -4.332832E+001 -1.280342E+002 -4.332858E+001 -1.280359E+002 -6.883152E-001  9.081460E+001
5500.0000     -1.812737E+000  5.543417E+001 -4.641802E+001 -1.348067E+002 -4.641140E+001 -1.348066E+002 -6.733006E-001  8.758701E+001
5525.0000     -1.859840E+000  4.690019E+001 -4.937429E+001 -1.373920E+002 -4.934046E+001 -1.372437E+002 -6.726273E-001  8.436710E+001
5550.0000     -1.927862E+000  3.816437E+001 -5.204020E+001 -1.351839E+002 -5.206447E+001 -1.354863E+002 -6.672325E-001  8.112556E+001
5575.0000     -2.017822E+000  2.918563E+001 -5.433552E+001 -1.279837E+002 -5.428231E+001 -1.282133E+002 -6.600219E-001  7.791998E+001
5600.0000     -2.113481E+000  1.990778E+001 -5.566321E+001 -1.167356E+002 -5.573738E+001 -1.164332E+002 -6.580953E-001  7.469926E+001
5625.0000     -2.221746E+000  1.037785E+001 -5.573398E+001 -1.042777E+002 -5.579155E+001 -1.043799E+002 -6.557701E-001  7.152176E+001
5650.0000     -2.345026E+000  4.872215E-001 -5.485598E+001 -9.627486E+001 -5.491261E+001 -9.610177E+001 -6.529995E-001  6.832265E+001
5675.0000     -2.471494E+000 -9.819058E+000 -5.357937E+001 -9.243791E+001 -5.352549E+001 -9.280610E+001 -6.506381E-001  6.515735E+001
5700.0000     -2.601273E+000 -2.045979E+001 -5.217116E+001 -9.277232E+001 -5.221981E+001 -9.230937E+001 -6.478671E-001  6.198379E+001
5725.0000     -2.747140E+000 -3.154700E+001 -5.070754E+001 -9.453835E+001 -5.077245E+001 -9.467770E+001 -6.433072E-001  5.883135E+001
5750.0000     -2.894474E+000 -4.312309E+001 -4.917524E+001 -9.883067E+001 -4.916103E+001 -9.891476E+001 -6.446227E-001  5.566614E+001
5775.0000     -3.048813E+000 -5.507845E+001 -4.757470E+001 -1.040470E+002 -4.755345E+001 -1.039806E+002 -6.393600E-001  5.250193E+001
5800.0000     -3.226892E+000 -6.752557E+001 -4.586703E+001 -1.106285E+002 -4.586914E+001 -1.106503E+002 -6.357979E-001  4.935899E+001
5825.0000     -3.429776E+000 -8.048267E+001 -4.400901E+001 -1.181352E+002 -4.402301E+001 -1.180914E+002 -6.350802E-001  4.622765E+001
5850.0000     -3.683388E+000 -9.364078E+001 -4.192507E+001 -1.264950E+002 -4.190727E+001 -1.265725E+002 -6.334840E-001  4.305668E+001
5875.0000     -3.968446E+000 -1.069228E+002 -3.945667E+001 -1.363219E+002 -3.947712E+001 -1.363197E+002 -6.319385E-001  3.991241E+001
5900.0000     -4.238159E+000 -1.210316E+002 -3.645649E+001 -1.489593E+002 -3.646513E+001 -1.489589E+002 -6.344110E-001  3.676908E+001
5925.0000     -4.812168E+000 -1.377847E+002 -3.282774E+001 -1.676947E+002 -3.283401E+001 -1.676716E+002 -6.400372E-001  3.362089E+001
5950.0000     -7.158545E+000 -1.555555E+002 -2.883715E+001  1.606605E+002 -2.884485E+001  1.606296E+002 -6.568025E-001  3.050529E+001
5975.0000     -9.996225E+000 -1.329229E+002 -2.716474E+001  1.103082E+002 -2.716548E+001  1.102766E+002 -6.650932E-001  2.758995E+001
6000.0000     -5.701428E+000 -1.353174E+002 -2.946673E+001  6.919853E+001 -2.946696E+001  6.920238E+001 -6.447350E-001  2.461333E+001
